LAMMPS (20 Nov 2019)
# Nanodroplet of water on the graphene nanoribbon #

# ------------------------ INITIALIZATION ----------------------------
echo			both
units			metal
boundary		p p p
atom_style		full
bond_style		harmonic
angle_style		harmonic
dimension		3
neighbor		0.3 bin

# ----------------------- ATOM DEFINITION ----------------------------
read_data pos1.data
  orthogonal box = (-36.5268 -10.3138 -46.4164) to (84.4197 110.992 130.921)
  1 by 1 by 1 MPI processor grid
  reading atoms ...
  6705 atoms
  scanning bonds ...
  2 = max bonds/atom
  scanning angles ...
  3 = max angles/atom
  reading bonds ...
  6081 bonds
  reading angles ...
  7337 angles
  3 = max # of 1-2 neighbors
  6 = max # of 1-3 neighbors
  18 = max # of 1-4 neighbors
  18 = max # of special neighbors
  special bonds CPU = 0.00196372 secs
  read_data CPU = 0.0171869 secs

# ------------------------ FORCE FIELDS ------------------------------
pair_style hybrid airebo 2.5 0 3 lj/cut/tip4p/long 1 2 1 1 0.1250 9 8
pair_coeff * * lj/cut/tip4p/long 0.0 0.0
pair_coeff 1 2 lj/cut/tip4p/long 0.0 0.0
pair_coeff 2 2 lj/cut/tip4p/long 0.0 0.0
pair_coeff 2 3 lj/cut/tip4p/long 0.0032399 3.19
pair_coeff 1 1 lj/cut/tip4p/long 0.16275 3.16435 # O-O (water TIP4P/2005)
pair_coeff 1 3 lj/cut/tip4p/long 0.0032399 3.19 # O-C (amber)
pair_coeff * * airebo CH.airebo C H NULL
Reading potential file CH.airebo with DATE: 2011-10-25
kspace_style	pppm/tip4p 1.0e-4


#bond_coeff 1 0.0 0.9572 # TIP4P/epsilon
bond_coeff 1 600.0  0.9572 # TIP4P/epsilon
bond_coeff 2 610.0 1.42 # GROMOS53A6

#angle_coeff 1 2.6018473 104.52 # TIP4P/epsilon
angle_coeff 1 75.0 104.52 # TIP4P/epsilon
angle_coeff  2 90.0 120.0 # GROMOS53A6

# Grouping #
group g_C type 3
2016 atoms in group g_C
group g_O type 1
1563 atoms in group g_O
group g_H type 2
3126 atoms in group g_H
group g_W union g_O g_H
4689 atoms in group g_W

compute 3 all pe/atom
compute 4 all stress/atom NULL virial

fix npt all npt temp 500 500 .5 x 0.0 0.0 .5 y 0.0 0.0 .5
fix bp all balance 1000 1 shift z 10 1

thermo_style custom step temp ke pe press vol
timestep 0.00001
run 500
PPPM initialization ...
  extracting TIP4P info from pair style
  using 12-bit tables for long-range coulomb (src/kspace.cpp:323)
  G vector (1/distance) = 0.284733
  grid = 54 54 72
  stencil order = 5
  estimated absolute RMS force accuracy = 0.00156748
  estimated relative force accuracy = 0.000108856
  using double precision FFTW3
  3d grid and FFT values/proc = 268037 209952
WARNING: Using a manybody potential with bonds/angles/dihedrals and special_bond exclusions (src/pair.cpp:226)
Neighbor list info ...
  update every 1 steps, delay 10 steps, check yes
  max neighbors/atom: 2000, page size: 100000
  master list distance cutoff = 9.3
  ghost atom cutoff = 9.3
  binsize = 4.65, bins = 27 27 39
  4 neighbor lists, perpetual/occasional/extra = 4 0 0
  (1) pair airebo, perpetual, skip from (3)
      attributes: full, newton on, ghost
      pair build: skip/ghost
      stencil: none
      bin: none
  (2) pair lj/cut/tip4p/long, perpetual, skip from (4)
      attributes: half, newton on
      pair build: skip
      stencil: none
      bin: none
  (3) neighbor class addition, perpetual
      attributes: full, newton on, ghost
      pair build: full/bin/ghost
      stencil: full/ghost/bin/3d
      bin: standard
  (4) neighbor class addition, perpetual
      attributes: half, newton on
      pair build: half/bin/newton
      stencil: half/bin/3d/newton
      bin: standard
Per MPI rank memory allocation (min/avg/max) = 60.68 | 60.68 | 60.68 Mbytes
Step Temp KinEng PotEng Press Volume 
       0            0            0    1068043.8   -489428.23    2601803.1 
     500    1025566.3    888714.79     149205.5    265293.14      2611706 
Loop time of 27.2247 on 1 procs for 500 steps with 6705 atoms

Performance: 0.016 ns/day, 1512.482 hours/ns, 18.366 timesteps/s
99.9% CPU use with 1 MPI tasks x no OpenMP threads

MPI task timing breakdown:
Section |  min time  |  avg time  |  max time  |%varavg| %total
---------------------------------------------------------------
Pair    | 7.816      | 7.816      | 7.816      |   0.0 | 28.71
Bond    | 0.23107    | 0.23107    | 0.23107    |   0.0 |  0.85
Kspace  | 9.0749     | 9.0749     | 9.0749     |   0.0 | 33.33
Neigh   | 1.3783     | 1.3783     | 1.3783     |   0.0 |  5.06
Comm    | 0.0037713  | 0.0037713  | 0.0037713  |   0.0 |  0.01
Output  | 4.3863e-05 | 4.3863e-05 | 4.3863e-05 |   0.0 |  0.00
Modify  | 8.7123     | 8.7123     | 8.7123     |   0.0 | 32.00
Other   |            | 0.008228   |            |       |  0.03

Nlocal:    6705 ave 6705 max 6705 min
Histogram: 1 0 0 0 0 0 0 0 0 0
Nghost:    0 ave 0 max 0 min
Histogram: 1 0 0 0 0 0 0 0 0 0
Neighs:    91776 ave 91776 max 91776 min
Histogram: 1 0 0 0 0 0 0 0 0 0
FullNghs:  521626 ave 521626 max 521626 min
Histogram: 1 0 0 0 0 0 0 0 0 0

Total # of neighbors = 521626
Ave neighs/atom = 77.7966
Ave special neighs/atom = 6.5393
Neighbor list builds = 50
Dangerous builds = 50

#group g_fix region r_fix
variable frc equal 2e-4 # force to be applied to the water molecule
variable ymn equal ylo+20
variable ymx equal yhi-20
variable xmn equal xlo+20
variable xmx equal xhi-20
region middle block ${xmn} ${xmx} ${ymn} ${ymx} -5 5 units box
region middle block -16.6586415455033 ${xmx} ${ymn} ${ymx} -5 5 units box
region middle block -16.6586415455033 64.5515785455034 ${ymn} ${ymx} -5 5 units box
region middle block -16.6586415455033 64.5515785455034 9.58782763505707 ${ymx} -5 5 units box
region middle block -16.6586415455033 64.5515785455034 9.58782763505707 91.090173364943 -5 5 units box
group middle region middle
1596 atoms in group middle
unfix npt

newton on

change_box all boundary p p p

reset_timestep 0
velocity middle set NULL NULL -20.0 sum no units box
velocity g_O set 0.0 0.0 -20.0 sum yes units box
velocity g_H set 0.0 0.0 -20.0 sum yes units box
#fix	eva g_W evaporate 10000 20 middle 38277 molecule yes
fix grav g_W gravity 5.0 vector 0 0 -20
fix kick g_W addforce ${frc} 0.0 0.0
fix kick g_W addforce 0.0002 0.0 0.0
timestep 0.00001

fix fxlan g_W langevin 500.0 500.0 100.0 48279
fix 1 all nve
fix 3 all temp/rescale 1 500.0 500.0 0.0 1.0

fix 		mysf1 g_C setforce 0.0 NULL 0.0
velocity	g_C set NULL NULL 0

compute myack all ackland/atom
compute myke all ke/atom
compute mype all pe/atom
compute Ek_Graphene g_C reduce sum c_myke
compute Ek_Water g_W reduce sum c_myke
compute Ep_Graphene g_C reduce sum c_mype
compute Ep_Water g_W reduce sum c_mype

compute gofr all rdf 1000  1 1  2 2  1 2  # O-O, H-H, O-H
compute gfr all rdf 1000  1 3  3 3  2 3  # O-O, H-H, O-H
fix rdf all ave/time 100 10 1000 c_gofr[*] file spce-rdfgo.dat mode vector
fix rdf all ave/time 100 10 1000 c_gfr[*] file spce-rdfg.dat mode vector

dump mydump1 all atom 10 dump.Graphene3drop500K.dump

thermo 1000
thermo_style custom step atoms temp pe c_Ep_Graphene c_Ep_Water ke c_Ek_Graphene c_Ek_Water etotal evdwl ecoul epair enthalpy vol density press
thermo_modify lost ignore flush yes
run 	500000
PPPM initialization ...
  extracting TIP4P info from pair style
  using 12-bit tables for long-range coulomb (src/kspace.cpp:323)
  G vector (1/distance) = 0.284598
  grid = 54 54 72
  stencil order = 5
  estimated absolute RMS force accuracy = 0.00157223
  estimated relative force accuracy = 0.000109185
  using double precision FFTW3
  3d grid and FFT values/proc = 268037 209952
WARNING: Using a manybody potential with bonds/angles/dihedrals and special_bond exclusions (src/pair.cpp:226)
Neighbor list info ...
  update every 1 steps, delay 10 steps, check yes
  max neighbors/atom: 2000, page size: 100000
  master list distance cutoff = 9.3
  ghost atom cutoff = 9.3
  binsize = 4.65, bins = 27 27 39
  7 neighbor lists, perpetual/occasional/extra = 4 3 0
  (1) pair airebo, perpetual, skip from (6)
      attributes: full, newton on, ghost
      pair build: skip/ghost
      stencil: none
      bin: none
  (2) pair lj/cut/tip4p/long, perpetual, skip from (7)
      attributes: half, newton on
      pair build: skip
      stencil: none
      bin: none
  (3) compute ackland/atom, occasional, copy from (6)
      attributes: full, newton on
      pair build: copy
      stencil: none
      bin: none
  (4) compute rdf, occasional, copy from (7)
      attributes: half, newton on
      pair build: copy
      stencil: none
      bin: none
  (5) compute rdf, occasional, copy from (7)
      attributes: half, newton on
      pair build: copy
      stencil: none
      bin: none
  (6) neighbor class addition, perpetual
      attributes: full, newton on, ghost
      pair build: full/bin/ghost
      stencil: full/ghost/bin/3d
      bin: standard
  (7) neighbor class addition, perpetual
      attributes: half, newton on
      pair build: half/bin/newton
      stencil: half/bin/3d/newton
      bin: standard
Per MPI rank memory allocation (min/avg/max) = 62.53 | 62.53 | 62.53 Mbytes
Step Atoms Temp PotEng c_Ep_Graphene c_Ep_Water KinEng c_Ek_Graphene c_Ek_Water TotEng E_vdwl E_coul E_pair Enthalpy Volume Density Press 
       0     6705    1026239.9    149208.25    2.4213231    149205.83    889298.46   0.73214396    889297.73    1038506.7   -8429.0833            0   -14340.145    1471349.9      2611706  0.033298096    265531.88 
    1000     6705          500   -17069.805    2.2154773   -17072.021    433.28001 0.0030754153    433.27693   -16636.525   -11387.245            0    -17307.74   -21975.024      2611706  0.033298096   -3274.9541 
    2000     6705          500   -17443.262    2.1170766   -17445.379    433.28001 0.00098741521    433.27902   -17009.982   -11763.163            0   -17684.251   -22680.672      2611706  0.033298096   -3478.7401 
    3000     6705          500   -17604.479     2.076938   -17606.556    433.28001 0.00050109166     433.2795   -17171.199   -11927.407            0     -17849.2   -22880.263      2611706  0.033298096   -3502.2811 
    4000     6705          500   -17718.547    2.0535077   -17720.601    433.28001 0.00031906598    433.27969   -17285.267   -12042.896            0   -17965.333   -23008.631      2611706  0.033298096   -3511.0533 
    5000     6705          500   -17789.996    2.0370546   -17792.033    433.28001 0.00023018484    433.27978   -17356.716   -12115.623            0   -18038.621   -23081.718      2611706  0.033298096   -3512.0588 
    6000     6705          500   -17859.267    2.0241674   -17861.291    433.28001 0.00017951933    433.27983   -17425.987   -12185.473            0   -18109.023   -23140.965      2611706  0.033298096   -3505.9093 
    7000     6705          500    -17922.71    2.0131912   -17924.723    433.28001 0.00014705778    433.27986    -17489.43   -12249.924            0   -18173.956   -23184.901      2611706  0.033298096   -3493.9428 
    8000     6705          500   -17975.364    2.0033579   -17977.367    433.28001 0.00012565836    433.27988   -17542.084   -12302.775            0   -18227.178   -23210.722      2611706  0.033298096   -3477.4814 
    9000     6705          500   -18013.275    1.9942532    -18015.27    433.28001 0.00010986823     433.2799   -17579.995   -12340.945            0   -18265.763   -23231.424      2611706  0.033298096   -3466.9238 
   10000     6705          500   -18053.852    1.9855643   -18055.838    433.28001 9.7953112e-05    433.27991   -17620.572   -12381.771            0   -18306.958   -23267.103      2611706  0.033298096   -3463.9192 
   11000     6705          500   -18095.687    1.9770846   -18097.664    433.28001 8.8691938e-05    433.27992   -17662.407   -12425.013            0   -18350.552   -23304.455      2611706  0.033298096   -3461.1692 
   12000     6705          500   -18135.434      1.96842   -18137.402    433.28001 8.1311292e-05    433.27992   -17702.154   -12465.508            0   -18391.391   -23326.865      2611706  0.033298096   -3450.5342 
   13000     6705          500   -18168.497    1.9593744   -18170.456    433.28001 7.5266006e-05    433.27993   -17735.217   -12498.566            0   -18424.813    -23342.61      2611706  0.033298096   -3439.9101 
   14000     6705          500    -18198.35    1.9498713     -18200.3    433.28001 7.0225456e-05    433.27994    -17765.07   -12528.022            0   -18454.635   -23363.072      2611706  0.033298096    -3434.149 
   15000     6705          500   -18227.555    1.9397201   -18229.495    433.28001 6.596206e-05    433.27994   -17794.275   -12556.693            0    -18483.67   -23377.688      2611706  0.033298096   -3425.1991 
   16000     6705          500       -18252     1.928626   -18253.928    433.28001 6.2306298e-05    433.27994    -17818.72   -12580.784            0   -18508.127   -23380.035      2611706  0.033298096   -3411.6434 
   17000     6705          500   -18274.014    1.9162411    -18275.93    433.28001 5.9131717e-05    433.27995   -17840.734   -12602.433            0   -18530.137   -23378.372      2611706  0.033298096   -3397.1185 
   18000     6705          500   -18294.188    1.9027705   -18296.091    433.28001 5.6345326e-05    433.27995   -17860.908    -12622.24            0   -18550.289   -23377.919      2611706  0.033298096   -3384.4637 
   19000     6705          500   -18312.866    1.8879807   -18314.754    433.28001 5.3883319e-05    433.27995   -17879.586   -12640.589            0   -18568.953   -23376.453      2611706  0.033298096   -3372.1066 
   20000     6705          500   -18330.689    1.8718714   -18332.561    433.28001 5.1689269e-05    433.27995   -17897.409   -12658.151            0   -18586.805   -23374.753      2611706  0.033298096   -3360.1301 
   21000     6705          500   -18347.892    1.8551458   -18349.747    433.28001 4.9719353e-05    433.27996   -17914.612   -12675.315            0   -18604.248   -23376.369      2611706  0.033298096   -3350.5686 
   22000     6705          500   -18363.242    1.8389273   -18365.081    433.28001 4.7941855e-05    433.27996   -17929.962   -12690.574            0   -18619.757   -23369.171      2611706  0.033298096    -3336.736 
   23000     6705          500   -18376.734    1.8272358   -18378.561    433.28001 4.6328185e-05    433.27996   -17943.454   -12703.865            0   -18633.267   -23358.224      2611706  0.033298096   -3321.7435 
   24000     6705          500   -18388.397    1.8284125   -18390.225    433.28001 4.4855853e-05    433.27996   -17955.117   -12715.308            0   -18644.909   -23348.523      2611706  0.033298096   -3308.6377 
   25000     6705          500   -18398.505    1.8623005   -18400.367    433.28001 4.3515531e-05    433.27996   -17965.225   -12725.207            0   -18654.996   -23341.719      2611706  0.033298096   -3298.2626 
   26000     6705          500   -18407.465    1.9747927    -18409.44    433.28001 4.2338065e-05    433.27996   -17974.185   -12734.009            0    -18663.98   -23336.036      2611706  0.033298096   -3289.2796 
   27000     6705          500   -18415.283    2.2752259   -18417.558    433.28001 4.1652506e-05    433.27996   -17982.003   -12741.645            0   -18671.797   -23327.699      2611706  0.033298096   -3279.3691 
   28000     6705          500   -18421.648    3.0092208   -18424.658    433.28001 4.3701044e-05    433.27996   -17988.368   -12747.863            0   -18678.195   -23315.733      2611706  0.033298096   -3268.1239 
   29000     6705          500   -18425.823    4.6447682   -18430.468    433.28001 6.0655544e-05    433.27995   -17992.543   -12751.916            0   -18682.424   -23293.875      2611706  0.033298096   -3252.1541 
   30000     6705          500   -18426.783    7.6893818   -18434.472    433.28001 0.00012415793    433.27988   -17993.503   -12752.753            0   -18683.432   -23257.919      2611706  0.033298096   -3229.5075 
   31000     6705          500    -18424.86    11.900484    -18436.76    433.28001 0.00022941055    433.27978    -17991.58   -12750.722            0   -18681.559    -23211.91      2611706  0.033298096   -3202.4624 
   32000     6705          500   -18421.665    16.245476    -18437.91    433.28001 0.0003284829    433.27968   -17988.385   -12747.431            0   -18678.415   -23161.669      2611706  0.033298096   -3173.6014 
   33000     6705          500   -18417.806    20.355268   -18438.161    433.28001 0.00045846591    433.27955   -17984.526   -12743.539            0   -18674.651    -23113.42      2611706  0.033298096   -3146.3699 
   34000     6705          500   -18414.912    24.126357   -18439.039    433.28001 0.00068346879    433.27932   -17981.632   -12740.679            0     -18671.9   -23073.309      2611706  0.033298096   -3123.5387 
   35000     6705          500   -18415.729    26.363087   -18442.092    433.28001 0.00092770876    433.27908   -17982.449   -12741.503            0   -18672.813   -23052.172      2611706  0.033298096   -3110.0708 
   36000     6705          500   -18423.153    27.043325   -18450.196    433.28001 0.0010849869    433.27892   -17989.873   -12748.978            0   -18680.362   -23062.449      2611706  0.033298096   -3111.8215 
   37000     6705          500   -18425.527    29.130888   -18454.658    433.28001 0.0012068687     433.2788   -17992.247   -12751.489            0   -18682.946   -23039.467      2611706  0.033298096   -3096.2661 
   38000     6705          500   -18425.554     31.61421   -18457.168    433.28001 0.0012696106    433.27874   -17992.274   -12751.524            0   -18683.057   -23014.125      2611706  0.033298096   -3080.7034 
   39000     6705          500   -18425.046    33.822367   -18458.868    433.28001 0.0012408149    433.27877   -17991.766    -12751.03            0   -18682.646   -22989.334      2611706  0.033298096   -3065.8068 
   40000     6705          500   -18421.045    36.574168   -18457.619    433.28001 0.0012071681     433.2788   -17987.765   -12746.985            0   -18678.699   -22950.704      2611706  0.033298096   -3044.5637 
   41000     6705          500   -18413.448    40.123956   -18453.571    433.28001 0.0012757221    433.27873   -17980.168   -12739.419            0   -18671.236   -22900.478      2611706  0.033298096   -3018.4127 
   42000     6705          500   -18406.564    44.058848   -18450.623    433.28001 0.0014389112    433.27857   -17973.284    -12732.47            0   -18664.396   -22849.721      2611706  0.033298096   -2991.4977 
   43000     6705          500   -18400.615    48.305221   -18448.921    433.28001 0.0016559377    433.27835   -17967.335   -12726.665            0   -18658.706   -22810.705      2611706  0.033298096   -2971.2121 
   44000     6705          500   -18396.861    52.783062   -18449.645    433.28001 0.0017086612     433.2783   -17963.581   -12723.192            0   -18655.341   -22769.925      2611706  0.033298096   -2948.4986 
   45000     6705          500   -18389.154    59.167435   -18448.321    433.28001  0.001692347    433.27831   -17955.874   -12715.628            0   -18647.873   -22707.289      2611706  0.033298096    -2914.802 
   46000     6705          500   -18374.221    68.135655   -18442.357    433.28001 0.0017276357    433.27828   -17940.941   -12700.852            0   -18633.176   -22615.039      2611706  0.033298096    -2867.371 
   47000     6705          500   -18355.115    79.169477   -18434.285    433.28001 0.0016674867    433.27834   -17921.835   -12681.892            0    -18614.28    -22506.45      2611706  0.033298096   -2812.4766 
   48000     6705          500   -18329.617     92.48599   -18422.103    433.28001  0.001568175    433.27844   -17896.337   -12656.729            0   -18589.161   -22365.412      2611706  0.033298096   -2741.5974 
   49000     6705          500   -18300.568    107.35231   -18407.921    433.28001 0.0020094834      433.278   -17867.288   -12628.149            0   -18560.584   -22210.492      2611706  0.033298096   -2664.3805 
   50000     6705          500   -18265.602    124.76984   -18390.371    433.28001 0.0020050459      433.278   -17832.322   -12593.521            0   -18525.921   -22030.064      2611706  0.033298096   -2575.1462 
   51000     6705          500   -18238.504    138.80429   -18377.309    433.28001 0.0019657778    433.27804   -17805.224   -12566.583            0   -18498.918    -21885.69      2611706  0.033298096   -2503.2012 
   52000     6705          500   -18215.344    150.16487   -18365.509    433.28001 0.0021757369    433.27783   -17782.064   -12543.467            0   -18475.737   -21765.967      2611706  0.033298096   -2443.9637 
   53000     6705          500   -18191.229    161.78524   -18353.015    433.28001 0.0025698005    433.27744   -17757.949   -12519.453            0   -18451.647   -21649.878      2611706  0.033298096   -2387.5417 
   54000     6705          500   -18165.439    175.76535   -18341.204    433.28001 0.0029807252    433.27703   -17732.158   -12493.869            0   -18425.977   -21512.294      2611706  0.033298096   -2318.9608 
   55000     6705          500   -18138.018    194.08136   -18332.099    433.28001 0.0027238598    433.27728   -17704.738   -12466.759            0   -18398.836   -21340.943      2611706  0.033298096   -2230.6653 
   56000     6705          500   -18101.867    214.95227   -18316.819    433.28001 0.0026710931    433.27733   -17668.587   -12430.509            0   -18362.589   -21122.564      2611706  0.033298096   -2118.8759 
   57000     6705          500   -18041.916      244.325   -18286.241    433.28001 0.0035433599    433.27646   -17608.636   -12371.026            0   -18303.104   -20805.419      2611706  0.033298096   -1961.0978 
   58000     6705          500   -17982.127    274.81516   -18256.942    433.28001 0.0046984263    433.27531   -17548.847   -12312.476            0   -18244.488   -20496.947      2611706  0.033298096   -1808.5404 
   59000     6705          500   -17912.763    309.14403   -18221.907    433.28001 0.0059895491    433.27402   -17479.483    -12244.72            0   -18176.629   -20128.094      2611706  0.033298096   -1624.8163 
   60000     6705          500   -17833.821    345.80975    -18179.63    433.28001 0.0071443033    433.27286   -17400.541   -12167.712            0   -18099.486   -19737.282      2611706  0.033298096   -1433.4965 
   61000     6705          500   -17763.598    378.61281   -18142.211    433.28001 0.0075867428    433.27242   -17330.318   -12098.579            0   -18030.175   -19401.203      2611706  0.033298096   -1270.4048 
   62000     6705          500    -17714.44    404.03614   -18118.476    433.28001 0.0082007952    433.27181    -17281.16   -12049.906            0   -17981.371   -19157.624      2611706  0.033298096   -1151.1355 
   63000     6705          500   -17654.786    432.05527   -18086.841    433.28001  0.009432034    433.27057   -17221.506   -11991.983            0   -17923.309    -18873.71      2611706  0.033298096   -1013.5607 
   64000     6705          500   -17582.745    464.26123   -18047.006    433.28001 0.0095834015    433.27042   -17149.465   -11921.544            0   -17852.641   -18574.133      2611706  0.033298096   -873.97623 
   65000     6705          500   -17514.279    495.08077    -18009.36    433.28001 0.0093013071     433.2707   -17080.999   -11855.047            0    -17785.85   -18264.494      2611706  0.033298096   -726.02663 
   66000     6705          500   -17450.372    527.28725    -17977.66    433.28001   0.01025992    433.26975   -17017.092   -11793.462            0   -17723.899    -17895.63      2611706  0.033298096   -538.94746 
   67000     6705          500   -17370.537    561.92948   -17932.466    433.28001  0.012138375    433.26787   -16937.257   -11714.724            0   -17644.683   -17484.439      2611706  0.033298096   -335.67416 
   68000     6705          500    -17276.54    601.27209   -17877.812    433.28001  0.014800481    433.26521    -16843.26   -11622.775            0   -17552.237   -17036.609      2611706  0.033298096   -118.61209 
   69000     6705          500   -17193.587    637.19283   -17830.779    433.28001   0.01765688    433.26235   -16760.307   -11541.298            0   -17470.226   -16628.135      2611706  0.033298096    81.081671 
   70000     6705          500   -17117.939    673.76923   -17791.708    433.28001  0.019403228     433.2606   -16684.659   -11467.244            0   -17395.544   -16210.993      2611706  0.033298096    290.57457 
   71000     6705          500   -17030.439    710.31691   -17740.756    433.28001  0.020590443    433.25942   -16597.159   -11382.732            0   -17310.407   -15827.798      2611706  0.033298096    471.97221 
   72000     6705          500   -16935.293    752.92063   -17688.214    433.28001  0.022459946    433.25755   -16502.013   -11291.463            0   -17218.457   -15368.495      2611706  0.033298096    695.36801 
   73000     6705          500   -16844.686    797.26407    -17641.95    433.28001  0.021782843    433.25822   -16411.406   -11202.249            0   -17128.537   -14858.811      2611706  0.033298096    952.45446 
   74000     6705          500   -16737.661    844.27258   -17581.934    433.28001  0.020514985    433.25949   -16304.381   -11098.013            0   -17023.755   -14365.819      2611706  0.033298096      1189.23 
   75000     6705          500   -16626.473    893.93574   -17520.408    433.28001  0.017956614    433.26205   -16193.193   -10990.627            0   -16916.013   -13818.686      2611706  0.033298096    1456.6645 
   76000     6705          500   -16512.967    936.71068   -17449.678    433.28001  0.018900209    433.26111   -16079.687   -10880.158            0   -16805.163   -13299.076      2611706  0.033298096    1705.7931 
   77000     6705          500    -16378.27    988.46591   -17366.736    433.28001  0.020808741     433.2592    -15944.99   -10747.628            0   -16672.456   -12697.163      2611706  0.033298096    1992.4114 
   78000     6705          500   -16238.225    1036.9484   -17275.173    433.28001  0.021659706    433.25835   -15804.945   -10613.024            0   -16537.512   -12111.923      2611706  0.033298096    2265.5204 
   79000     6705          500   -16096.443    1088.9266    -17185.37    433.28001  0.023146663    433.25686   -15663.163   -10476.743            0   -16400.695   -11504.964      2611706  0.033298096    2550.8878 
   80000     6705          500   -15944.491    1145.2698   -17089.761    433.28001  0.026251029    433.25376   -15511.211   -10329.509            0   -16252.695   -10818.826      2611706  0.033298096    2878.5897 
   81000     6705          500   -15794.909    1202.8639   -16997.773    433.28001  0.029112054    433.25089   -15361.629   -10183.064            0   -16105.289    -10137.08      2611706  0.033298096    3205.0503 
   82000     6705          500   -15653.733    1255.1784   -16908.911    433.28001  0.029994457    433.25001   -15220.453   -10044.553            0   -15965.718   -9512.6873      2611706  0.033298096    3501.4845 
   83000     6705          500   -15528.214    1304.8869   -16833.101    433.28001  0.035277454    433.24473   -15094.934     -9923.44            0   -15843.559   -8966.7076      2611706  0.033298096    3759.4202 
   84000     6705          500   -15416.063    1344.4701   -16760.533    433.28001  0.037579746    433.24243   -14982.783   -9816.9141            0   -15736.081   -8505.9611      2611706  0.033298096    3973.2694 
   85000     6705          500   -15302.891    1386.2013   -16689.092    433.28001  0.037872957    433.24213   -14869.611   -9707.7033            0    -15626.38   -7957.8903      2611706  0.033298096    4240.0623 
   86000     6705          500   -15186.819    1424.5578   -16611.377    433.28001  0.037812083    433.24219   -14753.539   -9594.0337            0   -15512.512   -7458.7471      2611706  0.033298096    4475.0611 
   87000     6705          500   -15084.261     1465.107   -16549.368    433.28001  0.038161181    433.24184   -14650.981   -9497.7981            0   -15415.733   -6980.3341      2611706  0.033298096    4705.6328 
   88000     6705          500   -14934.722    1518.8968   -16453.619    433.28001  0.045887687    433.23412   -14501.442   -9354.8683            0   -15271.903    -6358.625      2611706  0.033298096    4995.2904 
   89000     6705          500   -14772.596    1578.4348   -16351.031    433.28001  0.050677647    433.22933   -14339.316   -9200.5797            0   -15116.466   -5689.6529      2611706  0.033298096    5306.2204 
   90000     6705          500   -14622.804    1638.2826   -16261.087    433.28001  0.054468805    433.22554   -14189.524   -9057.8436            0    -14972.66   -4984.7067      2611706  0.033298096    5646.7851 
   91000     6705          500   -14452.875    1701.3525   -16154.228    433.28001  0.051288904    433.22872   -14019.595   -8897.2469            0   -14810.974   -4269.3321      2611706  0.033298096     5981.394 
   92000     6705          500   -14297.587    1762.9406   -16060.528    433.28001  0.048806026     433.2312   -13864.307   -8749.8163            0   -14662.543   -3605.3178      2611706  0.033298096    6293.4771 
   93000     6705          500   -14144.457    1819.6519   -15964.109    433.28001  0.048023235    433.23198   -13711.177   -8605.1153            0   -14516.928   -2938.3289      2611706  0.033298096    6608.7089 
   94000     6705          500   -14010.767    1869.4352   -15880.202    433.28001  0.051610649     433.2284   -13577.487   -8479.3029            0   -14390.177    -2351.723      2611706  0.033298096    6886.5541 
   95000     6705          500   -13873.275    1921.6407   -15794.915    433.28001  0.054365842    433.22564   -13439.995   -8347.8335            0   -14257.981   -1725.3711      2611706  0.033298096    7186.4501 
   96000     6705          500   -13697.242    1983.5856   -15680.828    433.28001  0.061644005    433.21836   -13263.962   -8180.3521            0    -14089.64   -980.69729      2611706  0.033298096    7535.2886 
   97000     6705          500   -13495.466    2055.0956   -15550.562    433.28001  0.071280026    433.20873   -13062.186   -7989.1011            0   -13897.562   -133.58228      2611706  0.033298096    7931.1782 
   98000     6705          500   -13296.492    2128.7548   -15425.247    433.28001  0.076949503    433.20306   -12863.212    -7800.521            0   -13707.892    720.10144      2611706  0.033298096    8332.8159 
   99000     6705          500   -13115.887    2199.3523   -15315.239    433.28001  0.076791699    433.20321   -12682.607   -7630.8399            0   -13536.729    1493.8311      2611706  0.033298096    8696.6743 
  100000     6705          500   -12933.942    2264.1237   -15198.065    433.28001  0.074936074    433.20507   -12500.662   -7460.0393            0   -13364.161    2222.2808      2611706  0.033298096    9031.9327 
  101000     6705          500   -12759.674    2318.5944   -15078.269    433.28001  0.079335315    433.20067   -12326.394   -7295.8504            0   -13198.349    2896.3526      2611706  0.033298096    9338.5426 
  102000     6705          500   -12556.625     2385.428   -14942.053    433.28001   0.08667956    433.19333   -12123.345   -7103.1073            0   -13004.346    3674.8789      2611706  0.033298096    9691.5743 
  103000     6705          500   -12347.343    2450.2676   -14797.611    433.28001  0.097552865    433.18245   -11914.063   -6901.7922            0   -12802.028    4455.7153      2611706  0.033298096      10042.2 
  104000     6705          500   -12116.526    2520.1117   -14636.638    433.28001  0.096362504    433.18364   -11683.246   -6679.8147            0   -12579.003    5358.0931      2611706  0.033298096    10454.176 
  105000     6705          500   -11887.862     2584.161   -14472.023    433.28001  0.091530222    433.18848   -11454.582   -6464.9286            0   -12362.359    6255.3346      2611706  0.033298096    10864.321 
  106000     6705          500   -11667.117    2640.8584   -14307.976    433.28001  0.093632919    433.18637   -11233.837   -6257.3738            0   -12152.589     7054.683      2611706  0.033298096    11219.271 
  107000     6705          500   -11451.618    2705.7781   -14157.396    433.28001   0.10040887     433.1796   -11018.338   -6055.8455            0   -11948.935    7945.3206      2611706  0.033298096    11633.441 
  108000     6705          500   -11253.314    2768.4186   -14021.733    433.28001   0.10755003    433.17246   -10820.034   -5871.2684            0   -11762.485    8725.0258      2611706  0.033298096    11990.108 
  109000     6705          500   -11043.258    2836.6464   -13879.905    433.28001   0.11563122    433.16437   -10609.978   -5677.9016            0   -11567.622    9544.5847      2611706  0.033298096    12364.013 
  110000     6705          500   -10784.479    2909.3635   -13693.842    433.28001   0.12631939    433.15369   -10351.199   -5436.5823            0   -11324.717    10489.187      2611706  0.033298096    12784.738 
  111000     6705          500   -10505.231    2992.9906   -13498.221    433.28001   0.13731711    433.14269   -10071.951   -5171.1743            0   -11058.129    11611.024      2611706  0.033298096    13301.632 
  112000     6705          500   -10222.846    3078.0353   -13300.882    433.28001   0.14600045    433.13401   -9789.5664   -4910.0029            0   -10795.148    12693.463      2611706  0.033298096    13792.434 
  113000     6705          500   -9963.2209     3155.325   -13118.546    433.28001   0.15941404    433.12059   -9529.9409   -4670.9192            0   -10554.361     13655.13      2611706  0.033298096    14223.108 
  114000     6705          500   -9708.5049    3224.5336   -12933.039    433.28001   0.16209799    433.11791   -9275.2249   -4437.0871            0   -10318.861    14545.192      2611706  0.033298096    14612.867 
  115000     6705          500   -9478.3232    3293.5213   -12771.845    433.28001    0.1520991    433.12791   -9045.0432   -4225.9597            0   -10106.234    15413.193      2611706  0.033298096    15004.144 
  116000     6705          500   -9279.0962    3352.3642    -12631.46    433.28001    0.1539047     433.1261   -8845.8162   -4042.7134            0   -9920.1039     16103.89      2611706  0.033298096    15305.641 
  117000     6705          500   -9039.5221    3429.8947   -12469.417    433.28001   0.15711508    433.12289    -8606.242   -3823.9248            0   -9698.5764    16989.076      2611706  0.033298096    15701.697 
  118000     6705          500   -8810.8547    3507.6102   -12318.465    433.28001   0.16965222    433.11035   -8377.5747   -3617.4114            0    -9489.196    17789.799      2611706  0.033298096    16052.631 
  119000     6705          500   -8583.7787    3585.1884   -12168.967    433.28001   0.18205139    433.09795   -8150.4987   -3409.7849            0   -9278.5846    18564.896      2611706  0.033298096    16388.819 
  120000     6705          500   -8325.9998     3674.785   -12000.785    433.28001   0.18610611     433.0939   -7892.7198   -3175.8572            0   -9042.1486    19494.452      2611706  0.033298096    16800.928 
  121000     6705          500   -8074.0257    3754.8316   -11828.857    433.28001    0.1838414    433.09616   -7640.7457   -2946.5149            0   -8810.8295    20423.273      2611706  0.033298096    17216.146 
  122000     6705          500   -7833.5495    3823.2806    -11656.83    433.28001   0.16848753    433.11152   -7400.2695   -2728.9705            0   -8591.1626    21270.666      2611706  0.033298096    17588.465 
  123000     6705          500    -7584.517    3887.6767   -11472.194    433.28001   0.16635942    433.11365    -7151.237   -2503.7228            0   -8363.5254    22140.875      2611706  0.033298096    17969.532 
  124000     6705          500   -7338.4096    3948.6317   -11287.041    433.28001   0.16484636    433.11516   -6905.1296   -2278.9902            0    -8136.404    23010.041      2611706  0.033298096    18351.753 
  125000     6705          500   -7075.1521     4021.504   -11096.656    433.28001   0.15584172    433.12416   -6641.8721   -2035.5911            0   -7890.5922    23948.756      2611706  0.033298096    18766.119 
  126000     6705          500    -6797.189    4095.9498   -10893.139    433.28001   0.16003635    433.11997    -6363.909   -1781.5555            0   -7634.5555    24849.204      2611706  0.033298096    19147.989 
  127000     6705          500    -6523.545    4166.2817   -10689.827    433.28001   0.15770703     433.1223    -6090.265   -1536.6462            0   -7387.1332    25730.163      2611706  0.033298096    19520.552 
  128000     6705          500   -6240.5679    4251.5582   -10492.126    433.28001   0.15970505     433.1203   -5807.2879   -1280.8677            0   -7128.8693    26719.837      2611706  0.033298096    19954.082 
  129000     6705          500   -5987.7816    4329.2363   -10317.018    433.28001   0.16824418    433.11176   -5554.5015   -1047.1084            0   -6891.7998    27673.622      2611706  0.033298096    20384.116 
  130000     6705          500   -5772.6594    4387.9512   -10160.611    433.28001   0.17037047    433.10964   -5339.3794   -849.15296            0   -6690.1581    28469.736      2611706  0.033298096    20740.531 
  131000     6705          500   -5544.4079    4442.9206   -9987.3285    433.28001   0.16356276    433.11644   -5111.1279   -638.56158            0   -6476.2179    29170.665      2611706  0.033298096      21030.5 
  132000     6705          500   -5274.6802    4517.1398     -9791.82    433.28001   0.16513625    433.11487   -4841.4002   -391.49406            0   -6226.0684     30098.71      2611706  0.033298096    21434.351 
  133000     6705          500   -4968.7579    4609.3278   -9578.0857    433.28001   0.18152294    433.09848   -4535.4779   -110.47635            0    -5943.215    31217.998      2611706  0.033298096    21933.319 
  134000     6705          500   -4720.8419    4679.0006   -9399.8425    433.28001   0.19329725    433.08671   -4287.5619    112.04211            0   -5719.8977    32055.061      2611706  0.033298096    22294.736 
  135000     6705          500   -4493.5252    4737.4056   -9230.9308    433.28001   0.18505001    433.09496   -4060.2452    311.35361            0   -5520.1459     32781.06      2611706  0.033298096    22600.658 
  136000     6705          500   -4284.1927    4796.8668   -9081.0594    433.28001   0.17053136    433.10947   -3850.9127     498.8571            0   -5331.6101    33511.676      2611706  0.033298096    22920.444 
  137000     6705          500   -4071.8371    4856.9429     -8928.78    433.28001    0.1765326    433.10347   -3638.5571    692.69095            0    -5137.008    34231.011      2611706  0.033298096    23231.456 
  138000     6705          500   -3890.2515    4900.7145   -8790.9659    433.28001   0.16458953    433.11542   -3456.9715    853.54468            0    -4974.751    34814.146      2611706  0.033298096     23477.79 
  139000     6705          500   -3677.1562    4948.0094   -8625.1655    433.28001    0.1685163    433.11149   -3243.8762    1042.9976            0   -4783.6359    35416.072      2611706  0.033298096    23716.322 
  140000     6705          500    -3497.658    4982.8435   -8480.5015    433.28001   0.16558514    433.11442    -3064.378    1201.3466            0   -4622.6115    35870.629      2611706  0.033298096     23885.06 
  141000     6705          500   -3279.2634    5028.8804   -8308.1437    433.28001   0.17400212      433.106   -2845.9833    1398.0346            0   -4424.7445    36462.371      2611706  0.033298096    24114.093 
  142000     6705          500     -3098.04    5059.0718   -8157.1118    433.28001   0.17606303    433.10394     -2664.76    1556.3853            0   -4265.4891    36928.041      2611706  0.033298096     24288.59 
  143000     6705          500   -2899.8379    5108.3918   -8008.2297    433.28001   0.18320393     433.0968   -2466.5579    1735.6202            0   -4085.7358    37560.321      2611706  0.033298096    24554.879 
  144000     6705          500   -2690.2831    5168.3409    -7858.624    433.28001   0.19470745     433.0853   -2257.0031    1920.2962            0   -3900.8968    38227.813      2611706  0.033298096    24835.805 
  145000     6705          500   -2458.4483    5236.7466   -7695.1949    433.28001   0.20603317    433.07397   -2025.1683    2125.4799            0   -3695.0348    38976.059      2611706  0.033298096    25152.603 
  146000     6705          500   -2298.2545    5270.2559   -7568.5103    433.28001   0.21203869    433.06797   -1864.9745    2260.5204            0   -3558.7208    39367.984      2611706  0.033298096    25294.761 
  147000     6705          500   -2136.7142     5307.322   -7444.0362    433.28001    0.2118725    433.06813   -1703.4342    2391.6782            0   -3426.9609    39830.591      2611706  0.033298096    25479.453 
  148000     6705          500     -1920.86    5369.6841   -7290.5441    433.28001   0.23231298    433.04769     -1487.58     2574.763            0   -3243.4285    40501.995      2611706  0.033298096    25758.914 
  149000     6705          500   -1712.4314    5433.0262   -7145.4576    433.28001   0.24357566    433.03643   -1279.1514    2748.0185            0   -3070.2315    41157.213      2611706  0.033298096    26033.002 
  150000     6705          500   -1513.2321    5491.9147   -7005.1468    433.28001   0.24552108    433.03448   -1079.9521    2912.0158            0   -2905.5672     41748.47      2611706  0.033298096    26273.513 
  151000     6705          500   -1321.2578    5555.3449   -6876.6028    433.28001    0.2487341    433.03127   -887.97781    3069.5293            0   -2747.0721     42336.13      2611706  0.033298096     26516.25 
  152000     6705          500   -1161.3968     5612.437   -6773.8338    433.28001   0.24060362     433.0394   -728.11681    3198.8332            0   -2616.5203    42808.985      2611706  0.033298096     26708.26 
  153000     6705          500   -980.17822    5672.1737   -6652.3519    433.28001   0.23395303    433.04605   -546.89821    3345.0599            0   -2468.8157     43320.01      2611706  0.033298096    26910.583 
  154000     6705          500   -848.71299    5702.4456   -6551.1586    433.28001   0.21882826    433.06118   -415.43298    3451.2433            0   -2361.3302    43574.117      2611706  0.033298096    26985.819 
  155000     6705          500   -743.78132      5712.32   -6456.1013    433.28001   0.21302432    433.06698   -310.50132    3536.1952            0    -2276.806    43746.368      2611706  0.033298096    27027.116 
  156000     6705          500   -602.79817    5724.0592   -6326.8574    433.28001   0.20684744    433.07316   -169.51816    3654.0776            0   -2159.4204    44010.542      2611706  0.033298096    27102.688 
  157000     6705          500   -433.15925    5766.9183   -6200.0775    433.28001   0.19646906    433.08354   0.12075917    3797.6109            0   -2016.3801    44455.715      2611706  0.033298096    27271.718 
  158000     6705          500     -258.693    5823.5945   -6082.2875    433.28001   0.18805543    433.09195    174.58701    3946.2872            0   -1868.5404     44997.23      2611706  0.033298096    27496.887 
  159000     6705          500   -98.570007     5877.115    -5975.685    433.28001   0.18233832    433.09767       334.71    4082.3499            0     -1733.15    45475.826      2611706  0.033298096    27692.258 
  160000     6705          500   -9.7652238    5908.2124   -5917.9776    433.28001   0.18126033    433.09875    423.51478    4149.7349            0   -1666.1337    45645.573      2611706  0.033298096    27741.913 
  161000     6705          500    86.890043    5935.3228   -5848.4327    433.28001   0.17077988    433.10923    520.17005    4224.1083            0   -1592.2972    45865.873      2611706  0.033298096    27817.763 
  162000     6705          500    161.03316    5958.3874   -5797.3542    433.28001   0.16027804    433.11973    594.31317     4282.555            0   -1534.2831    46006.413      2611706  0.033298096    27858.495 
  163000     6705          500     238.0711    5990.8998   -5752.8287    433.28001   0.16084709    433.11916     671.3511    4342.9067            0   -1474.3625     46190.38      2611706  0.033298096    27924.092 
  164000     6705          500    300.29901    6019.2811   -5718.9821    433.28001   0.15951729    433.12049    733.57901    4389.8971            0   -1427.7092    46322.342      2611706  0.033298096    27966.871 
  165000     6705          500    364.81622    6048.7719   -5683.9556    433.28001    0.1635585    433.11645    798.09622    4433.4042            0   -1384.3037    46461.526      2611706  0.033298096    28012.677 
  166000     6705          500    444.57223    6083.8545   -5639.2823    433.28001   0.16891875    433.11109    877.85223    4490.7557            0   -1327.0745    46677.333      2611706  0.033298096    28096.138 
  167000     6705          500    518.52338    6116.3055   -5597.7821    433.28001   0.16397155    433.11603    951.80338    4540.4694            0   -1277.6975    46835.068      2611706  0.033298096    28147.536 
  168000     6705          500    594.33873    6147.7694   -5553.4306    433.28001   0.15868958    433.12132    1027.6187     4593.763            0    -1224.883    46999.277      2611706  0.033298096    28201.762 
  169000     6705          500    659.44642    6170.6994    -5511.253    433.28001   0.15651486    433.12349    1092.7264    4638.3759            0   -1180.6934    47089.052      2611706  0.033298096    28216.895 
  170000     6705          500    703.66801    6187.1565   -5483.4885    433.28001   0.16802033    433.11199     1136.948    4664.2165            0   -1154.0715    47111.785      2611706  0.033298096    28203.712 
  171000     6705          500    720.18043    6186.7637   -5466.5833    433.28001   0.14177537    433.13823    1153.4604    4674.2401            0   -1143.4819    47050.773      2611706  0.033298096    28156.154 
  172000     6705          500    759.13646    6199.7908   -5440.6543    433.28001   0.12911244    433.15089    1192.4165    4706.9339            0   -1110.3842    47140.607      2611706  0.033298096    28187.366 
  173000     6705          500    807.88795    6209.7888   -5401.9009    433.28001   0.11974902    433.16026     1241.168     4748.563            0   -1068.7326    47222.726      2611706  0.033298096    28207.835 
  174000     6705          500    875.47625    6232.0266   -5356.5503    433.28001   0.11530916     433.1647    1308.7563      4806.29            0   -1010.4588    47395.369      2611706  0.033298096    28272.282 
  175000     6705          500    951.32859    6254.8609   -5303.5323    433.28001   0.11531515    433.16469    1384.6086    4872.2648            0   -943.98415    47570.659      2611706  0.033298096    28333.283 
  176000     6705          500    999.75528    6271.0136   -5271.2583    433.28001   0.11310659     433.1669    1433.0353    4915.4503            0   -900.50435     47692.97      2611706  0.033298096    28378.608 
  177000     6705          500    1050.2107    6287.8849   -5237.6742    433.28001   0.11375361    433.16625    1483.4907    4958.5898            0   -857.17537    47826.256      2611706  0.033298096    28429.421 
  178000     6705          500    1115.5208    6309.6781   -5194.1573    433.28001   0.11232636    433.16768    1548.8008    5013.3608            0     -802.167    47976.885      2611706  0.033298096    28481.761 
  179000     6705          500    1203.1003    6332.7037   -5129.6034    433.28001    0.1111117    433.16889    1636.3803    5090.8683            0   -724.95473     48171.65      2611706  0.033298096    28547.515 
  180000     6705          500    1309.6441     6357.359   -5047.7149    433.28001   0.11178072    433.16823    1742.9241    5184.5748            0   -631.59652    48455.433      2611706  0.033298096    28656.244 
  181000     6705          500    1372.8012     6366.004   -4993.2028    433.28001   0.11849008    433.16152    1806.0812    5238.9115            0    -577.3691    48569.399      2611706  0.033298096    28687.413 
  182000     6705          500    1471.1845    6389.5251   -4918.3406    433.28001   0.12094103    433.15907    1904.4645     5321.687            0   -493.60735     48799.05      2611706  0.033298096    28767.941 
  183000     6705          500    1579.3256    6426.3883   -4847.0628    433.28001   0.12429891    433.15571    2012.6056     5410.983            0   -403.40374    49111.601      2611706  0.033298096    28893.338 
  184000     6705          500    1698.0129    6465.1553   -4767.1423    433.28001   0.12609633    433.15391    2131.2929     5509.424            0   -304.25724    49430.534      2611706  0.033298096    29016.181 
  185000     6705          500    1797.9179    6501.1151   -4703.1972    433.28001   0.13196131    433.14804     2231.198    5592.4905            0   -220.94076    49709.007      2611706  0.033298096    29125.725 
  186000     6705          500    1893.4554      6538.34   -4644.8846    433.28001   0.13017386    433.14983    2326.7354    5666.2849            0   -147.00906    49969.677      2611706  0.033298096    29227.027 
  187000     6705          500    2013.6523    6574.0734   -4560.4211    433.28001   0.12605113    433.15395    2446.9323    5767.7561            0   -45.652876    50288.981      2611706  0.033298096    29349.171 
  188000     6705          500    2142.1843      6604.26   -4462.0757    433.28001   0.12403487    433.15597    2575.4643    5876.2313            0    62.780566    50572.102      2611706  0.033298096    29444.005 
  189000     6705          500    2290.4076    6637.5471   -4347.1396    433.28001   0.12445171    433.15555    2723.6876    6005.8971            0     193.0389    50906.434      2611706  0.033298096    29558.176 
  190000     6705          500    2420.9288    6659.7697   -4238.8409    433.28001   0.12327824    433.15673    2854.2088    6119.2735            0    307.62306    51167.712      2611706  0.033298096    29638.389 
  191000     6705          500    2582.1162    6695.7645   -4113.6483    433.28001   0.11900677      433.161    3015.3962    6260.1459            0    449.54356    51631.861      2611706  0.033298096    29824.245 
  192000     6705          500    2732.1528    6730.0059   -3997.8531    433.28001   0.11895543    433.16105    3165.4328    6389.3241            0    579.65325    52030.349      2611706  0.033298096     29976.66 
  193000     6705          500    2912.1718    6777.2861   -3865.1142    433.28001   0.11960396     433.1604    3345.4518    6546.5044            0    737.97288    52563.806      2611706  0.033298096    30193.479 
  194000     6705          500    3070.0167    6815.7052   -3745.6886    433.28001   0.12156024    433.15845    3503.2967    6685.0766            0    877.66618    53031.526      2611706  0.033298096    30383.576 
  195000     6705          500    3240.1042      6862.23   -3622.1258    433.28001   0.12814217    433.15186    3673.3843    6831.9433            0    1026.2199    53538.787      2611706  0.033298096    30590.418 
  196000     6705          500     3457.194    6915.2873   -3458.0933    433.28001   0.14105922    433.13895     3890.474    7024.8393            0    1220.9888     54201.35      2611706  0.033298096    30863.697 
  197000     6705          500    3690.7249    6979.4147   -3288.6899    433.28001   0.14782647    433.13218    4124.0049    7229.3393            0    1427.2316    54904.205      2611706  0.033298096    31151.609 
  198000     6705          500    3930.6906    7049.1475   -3118.4569    433.28001   0.15323606    433.12677    4363.9706    7436.3457            0    1635.7486    55657.543      2611706  0.033298096    31466.542 
  199000     6705          500      4176.67    7112.9597   -2936.2897    433.28001   0.15513213    433.12487      4609.95    7648.3407            0    1849.3887    56327.938      2611706  0.033298096    31726.904 
  200000     6705          500    4429.5505    7175.0577   -2745.5072    433.28001   0.15758281    433.12242    4862.8305    7867.0236            0     2070.339    57009.754      2611706  0.033298096    31990.039 
  201000     6705          500    4708.5013    7245.1722   -2536.6709    433.28001    0.1650593    433.11495    5141.7813    8112.8243            0    2317.7436     57784.75      2611706  0.033298096    32294.343 
  202000     6705          500    4985.4621    7310.0627   -2324.6006    433.28001   0.16247011    433.11754    5418.7421    8355.7067            0    2562.4234    58568.519      2611706  0.033298096    32605.249 
  203000     6705          500    5250.2561    7374.0135   -2123.7575    433.28001   0.15422107    433.12578    5683.5361    8590.4524            0    2799.7283    59330.814      2611706  0.033298096    32910.446 
  204000     6705          500    5518.0002    7440.7939   -1922.7936    433.28001   0.15346927    433.12654    5951.2802     8827.675            0    3039.2189    60112.432      2611706  0.033298096    33225.687 
  205000     6705          500    5790.1492    7510.4072   -1720.2581    433.28001   0.15701511    433.12299    6223.4292    9064.3143            0      3277.45    60905.821      2611706  0.033298096    33545.447 
  206000     6705          500     6033.824    7570.8487   -1537.0247    433.28001   0.16023709    433.11977     6467.104    9279.2087            0    3493.9786    61557.647      2611706  0.033298096    33795.831 
  207000     6705          500    6303.3559    7624.7045   -1321.3486    433.28001   0.16533309    433.11467    6736.6359    9519.4152            0    3735.3673    62267.326      2611706  0.033298096    34065.843 
  208000     6705          500    6570.2501    7679.7632   -1109.5131    433.28001   0.17173184    433.10827    7003.5301    9750.4543            0    3967.8494    63016.533      2611706  0.033298096    34361.723 
  209000     6705          500    6883.7956     7756.555   -872.75938    433.28001   0.18485594    433.09515    7317.0756    10027.355            0    4246.3829    63977.132      2611706  0.033298096    34758.664 
  210000     6705          500    7208.6637    7835.8064   -627.14266    433.28001   0.18215482    433.09785    7641.9437    10318.059            0    4537.9913    64979.438      2611706  0.033298096    35174.245 
  211000     6705          500    7595.5886    7932.2065    -336.6179    433.28001   0.18114273    433.09886    8028.8686    10669.665            0    4889.6695    66219.501      2611706  0.033298096    35697.611 
  212000     6705          500    7933.8122    7995.2323   -61.420034    433.28001   0.19404761    433.08596    8367.0922    10976.082            0    5197.4866    67204.192      2611706  0.033298096    36094.193 
  213000     6705          500    8192.0271    8040.9142    151.11284    433.28001   0.18242344    433.09758    8625.3071    11207.195            0    5431.2828    67929.815      2611706  0.033298096    36380.928 
  214000     6705          500    8516.4987    8093.5158    422.98299    433.28001   0.18888253    433.09112    8949.7788    11512.255            0    5739.5488    68860.963      2611706  0.033298096      36753.1 
  215000     6705          500    8851.4062    8141.6996    709.70652    433.28001   0.18079365    433.09921    9284.6862    11825.547            0    6055.7011    69835.528      2611706  0.033298096    37145.504 
  216000     6705          500    9219.1586    8209.8398    1009.3188    433.28001   0.18960432     433.0904    9652.4386    12163.501            0    6396.0931    70941.591      2611706  0.033298096    37598.428 
  217000     6705          500     9492.654    8239.8945    1252.7595    433.28001   0.21841615    433.06159     9925.934    12409.275            0    6645.0924    71534.369      2611706  0.033298096    37794.295 
  218000     6705          500    9835.9878    8301.0767     1534.911    433.28001   0.19714555    433.08286    10269.268    12725.907            0     6963.555    72495.429      2611706  0.033298096    38173.245 
  219000     6705          500    10209.999     8371.742    1838.2569    433.28001   0.19465422    433.08535    10643.279    13067.956            0    7307.4402    73648.789      2611706  0.033298096    38651.345 
  220000     6705          500    10669.658    8459.1029    2210.5554    433.28001   0.20091336    433.07909    11102.938    13486.963            0    7729.6426    75014.097      2611706  0.033298096    39206.923 
  221000     6705          500    11089.112    8543.6905    2545.4219    433.28001   0.20639588    433.07361    11522.392    13869.044            0    8115.3838     76271.34      2611706  0.033298096    39720.873 
  222000     6705          500    11468.276    8601.0086    2867.2679    433.28001    0.1915499    433.08846    11901.556    14215.491            0    8464.6453     77350.19      2611706  0.033298096    40150.102 
  223000     6705          500    11868.435    8668.1097    3200.3249    433.28001   0.17634375    433.10366    12301.715    14587.085            0    8840.5017     78568.02      2611706  0.033298096    40651.711 
  224000     6705          500    12290.428    8737.2362    3553.1919    433.28001   0.17554409    433.10446    12723.708    14984.342            0    9239.8158    79868.397      2611706  0.033298096    41190.564 
  225000     6705          500    12772.784    8806.7689    3966.0146    433.28001   0.18142448    433.09858    13206.064    15437.488            0    9695.4701    81290.676      2611706  0.033298096    41767.169 
  226000     6705          500    13271.793    8890.7221    4381.0708    433.28001   0.18194482    433.09806    13705.073    15904.256            0    10164.684    82811.293      2611706  0.033298096    42393.884 
  227000     6705          500    13737.685    8975.9292    4761.7554    433.28001   0.17862093    433.10139    14170.965    16342.045            0    10603.334    84127.719      2611706  0.033298096    42915.653 
  228000     6705          500    14239.662    9068.7988    5170.8631    433.28001   0.17792586    433.10208    14672.942     16812.76            0    11075.579    85693.788      2611706  0.033298096    43568.431 
  229000     6705          500    14760.736    9159.4109    5601.3247    433.28001   0.18265122    433.09735    15194.016     17302.17            0    11567.496    87292.309      2611706  0.033298096    44229.401 
  230000     6705          500    15279.829    9252.0875    6027.7414    433.28001   0.20396745    433.07604    15713.109    17789.506            0    12057.484    88857.116      2611706  0.033298096    44870.904 
  231000     6705          500    15688.164    9291.7682    6396.3957    433.28001    0.2435326    433.03647    16121.444    18195.485            0    12467.779    90105.113      2611706  0.033298096    45386.003 
  232000     6705          500    16101.465     9329.117    6772.3478    433.28001   0.18851183    433.09149    16534.745    18602.602            0    12878.542    91365.099      2611706  0.033298096    45905.411 
  233000     6705          500    16599.561    9406.1221     7193.439    433.28001   0.18817588    433.09183    17032.841    19084.241            0    13362.677    92943.547      2611706  0.033298096    46568.163 
  234000     6705          500    17097.305    9493.5776    7603.7277    433.28001   0.19168385    433.08832    17530.585    19557.565            0    13837.992    94451.355      2611706  0.033298096    47187.796 
  235000     6705          500    17561.109    9572.5463     7988.563    433.28001   0.18544098    433.09457    17994.389    19993.485            0    14276.449    95838.407      2611706  0.033298096    47754.172 
  236000     6705          500    17995.927    9603.7305     8392.196    433.28001   0.19457514    433.08543    18429.207    20415.898            0    14701.205    97048.714      2611706  0.033298096    48229.903 
  237000     6705          500    18531.492    9674.7801    8856.7119    433.28001   0.18441834    433.09559    18964.772    20932.502            0    15219.085    98712.729      2611706  0.033298096    48922.162 
  238000     6705          500     19059.62    9742.9094    9316.7108    433.28001   0.18252344    433.09748      19492.9    21441.396            0    15728.936    100334.59      2611706  0.033298096    49593.124 
  239000     6705          500    19663.163    9854.8539     9808.309    433.28001   0.22615478    433.05385    20096.443    22028.254            0    16315.946    102344.04      2611706  0.033298096    50455.592 
  240000     6705          500    20147.982    9913.2466    10234.735    433.28001   0.20489872    433.07511    20581.262    22499.413            0    16788.498    103813.84      2611706  0.033298096    51059.839 
  241000     6705          500    20608.992    9971.4659    10637.526    433.28001   0.21658738    433.06342    21042.272    22935.781            0    17227.705    105221.73      2611706  0.033298096    51640.708 
  242000     6705          500    21188.933    10077.293     11111.64    433.28001   0.21578071    433.06423    21622.213    23480.836            0    17776.822     107057.4      2611706  0.033298096    52411.046 
  243000     6705          500    21788.726    10203.974    11584.752    433.28001   0.22294326    433.05706    22222.006    24041.378            0     18342.04     108961.7      2611706  0.033298096    53211.311 
  244000     6705          500    22365.018    10311.816    12053.202    433.28001    0.2750658    433.00494    22798.298    24583.598            0    18888.098    110762.56      2611706  0.033298096    53962.534 
  245000     6705          500    22944.589    10438.869     12505.72    433.28001   0.26079144    433.01921    23377.869     25132.66            0    19441.676    112669.38      2611706  0.033298096    54776.746 
  246000     6705          500    23425.309    10539.284    12886.025    433.28001   0.25460587     433.0254    23858.589    25577.034            0    19890.673    114217.39      2611706  0.033298096    55431.486 
  247000     6705          500    23936.432    10629.701    13306.731    433.28001   0.24164812    433.03836    24369.712    26052.075            0    20371.085    115854.32      2611706  0.033298096    56122.127 
  248000     6705          500     24474.71    10713.916    13760.794    433.28001     0.251894    433.02811     24907.99    26555.172            0      20880.1    117492.34      2611706  0.033298096    56796.775 
  249000     6705          500    25030.436    10817.521    14212.915    433.28001   0.25271774    433.02729    25463.716    27069.423            0    21400.295    119189.49      2611706  0.033298096    57496.988 
  250000     6705          500    25626.986    10942.264    14684.723    433.28001   0.27596463    433.00404    26060.266    27619.078            0    21954.397    121080.51      2611706  0.033298096    58291.094 
  251000     6705          500    26241.111      11055.5    15185.611    433.28001   0.32355062    432.95646    26674.391    28180.909            0    22520.767    122926.19      2611706  0.033298096    59046.607 
  252000     6705          500     26884.38    11176.045    15708.335    433.28001   0.31780505     432.9622     27317.66    28779.395            0    23122.948    124945.57      2611706  0.033298096    59890.793 
  253000     6705          500    27506.251    11285.901     16220.35    433.28001   0.32707186    432.95293    27939.531     29361.45            0    23707.201    126839.45      2611706  0.033298096    60671.118 
  254000     6705          500    28087.839    11401.954    16685.885    433.28001   0.35365653    432.92635    28521.119    29908.453            0    24257.599    128655.75      2611706  0.033298096    61428.565 
  255000     6705          500    28714.684    11526.781    17187.903    433.28001   0.37564475    432.90436    29147.964    30486.311            0    24836.687    130584.33      2611706  0.033298096    62227.129 
  256000     6705          500     29305.74    11640.401    17665.339    433.28001   0.38451423    432.89549     29739.02    31030.922            0    25382.818    132274.77      2611706  0.033298096    62901.553 
  257000     6705          500    29823.919    11735.349     18088.57    433.28001   0.38139851    432.89861    30257.199    31505.284            0    25859.552    133836.91      2611706  0.033298096    63541.982 
  258000     6705          500     30399.61    11812.885    18586.724    433.28001   0.36280061    432.91721     30832.89    32040.367            0    26398.189    135491.74      2611706  0.033298096    64203.991 
  259000     6705          500    31012.423    11909.527    19102.896    433.28001   0.36048594    432.91952    31445.703    32609.534            0    26971.919    137283.19      2611706  0.033298096    64927.037 
  260000     6705          500    31581.836    12019.519    19562.317    433.28001   0.35582879    432.92418    32015.116    33130.409            0    27498.908    139042.44      2611706  0.033298096    65656.954 
  261000     6705          500    32142.111    12128.182    20013.929    433.28001    0.3659212    432.91408    32575.391    33640.386            0    28013.701    140764.21      2611706  0.033298096    66369.488 
  262000     6705          500    32688.518    12233.044    20455.475    433.28001   0.40024338    432.87976    33121.798    34130.591            0    28509.482    142341.76      2611706  0.033298096    67002.053 
  263000     6705          500    33238.927    12339.807     20899.12    433.28001   0.42801236    432.85199    33672.207        34616            0    28997.996    143865.62      2611706  0.033298096    67599.227 
  264000     6705          500    33808.839    12456.862    21351.977    433.28001   0.45232249    432.82768    34242.119    35120.159            0    29505.467    145477.46      2611706  0.033298096    68238.403 
  265000     6705          500    34370.295    12589.172    21781.122    433.28001   0.46061061     432.8194    34803.575    35612.556            0    30002.899     147118.5      2611706  0.033298096    68900.684 
  266000     6705          500    34816.914    12714.614      22102.3    433.28001   0.45211331    432.82789    35250.194    35997.231            0    30389.732    148398.72      2611706  0.033298096    69412.069 
  267000     6705          500    35280.649    12840.288    22440.361    433.28001   0.45277628    432.82723    35713.929    36404.334            0    30798.281    149705.55      2611706  0.033298096     69929.27 
  268000     6705          500    35702.013    12980.676    22721.337    433.28001   0.46875029    432.81126    36135.293     36764.67            0    31160.982    150988.76      2611706  0.033298096    70457.978 
  269000     6705          500    36051.184    13102.303    22948.881    433.28001   0.48094749    432.79906    36484.464    37051.348            0    31450.086    152020.75      2611706  0.033298096    70876.864 
  270000     6705          500    36345.279    13216.051    23129.229    433.28001   0.49291406    432.78709    36778.559    37296.524            0    31696.929    152937.82      2611706  0.033298096    71259.028 
  271000     6705          500    36624.492    13322.228    23302.264    433.28001   0.50000478       432.78    37057.772    37516.338            0     31918.95    153714.34      2611706  0.033298096    71564.107 
  272000     6705          500    36941.746    13433.786     23507.96    433.28001    0.5274717    432.75253    37375.026    37767.712            0    32171.634     154517.9      2611706  0.033298096    71862.436 
  273000     6705          500     37251.43    13545.212    23706.218    433.28001   0.53983013    432.74018     37684.71    38009.804            0    32414.038    155307.41      2611706  0.033298096    72156.795 
  274000     6705          500    37540.449    13642.971    23897.478    433.28001   0.53244229    432.74756    37973.729     38231.75            0    32636.409    156063.88      2611706  0.033298096    72443.555 
  275000     6705          500    37742.314    13727.893    24014.421    433.28001   0.50930871     432.7707    38175.594    38376.408            0    32782.145    156516.34      2611706  0.033298096    72597.285 
  276000     6705          500    37976.012    13818.073     24157.94    433.28001    0.4765415    432.80346    38409.293    38550.587            0    32956.976       157016      2611706  0.033298096    72760.439 
  277000     6705          500    38146.619    13903.486    24243.133    433.28001   0.46374809    432.81626    38579.899    38668.843            0    33075.684    157420.63      2611706  0.033298096    72904.006 
  278000     6705          500    38312.271    13985.713    24326.558    433.28001   0.46065028    432.81936    38745.551    38783.261            0    33190.612    157748.72      2611706  0.033298096    73003.657 
  279000     6705          500    38414.058    14045.475    24368.583    433.28001   0.43696625    432.84304    38847.338    38841.056            0    33249.195    157822.11      2611706  0.033298096    72986.234 
  280000     6705          500    38561.368    14110.711    24450.657    433.28001     0.424479    432.85553    38994.648    38950.508            0    33358.788    158117.79      2611706  0.033298096    73077.253 
  281000     6705          500    38685.662    14181.151    24504.511    433.28001    0.4193348    432.86067    39118.942    39038.155            0    33448.024     158411.6      2611706  0.033298096    73181.243 
  282000     6705          500    38796.157     14254.75    24541.407    433.28001   0.42419171    432.85581    39229.437    39110.509            0    33522.247    158624.08      2611706  0.033298096     73243.81 
  283000     6705          500    38889.147    14328.068     24561.08    433.28001    0.4212956    432.85871    39322.427     39162.76            0    33575.202    158810.35      2611706  0.033298096    73301.029 
  284000     6705          500    38950.785    14394.042    24556.742    433.28001   0.41588138    432.86412    39384.065    39185.818            0    33597.975    158943.31      2611706  0.033298096    73344.786 
  285000     6705          500    38979.238    14433.772    24545.465    433.28001   0.41213798    432.86787    39412.518    39188.132            0    33599.008    158878.96      2611706  0.033298096    73287.854 
  286000     6705          500    39035.734    14486.848    24548.887    433.28001   0.40507792    432.87493    39469.014    39217.587            0    33628.377    158956.73      2611706  0.033298096    73300.902 
  287000     6705          500    39057.129    14544.771    24512.358    433.28001   0.40531292    432.87469    39490.409    39210.388            0    33620.494     158906.8      2611706  0.033298096    73257.149 
  288000     6705          500    39019.891    14581.832    24438.059    433.28001   0.41253039    432.86748    39453.171    39146.913            0    33555.479    158584.69      2611706  0.033298096    73082.392 
  289000     6705          500    38953.628    14610.343    24343.286    433.28001   0.42310333     432.8569    39386.908    39052.128            0    33460.369    158204.98      2611706  0.033298096    72890.107 
  290000     6705          500    38877.484    14636.149    24241.335    433.28001    0.4205985    432.85941    39310.764    38960.445            0    33367.413    157846.21      2611706  0.033298096    72716.724 
  291000     6705          500    38800.077     14663.16    24136.917    433.28001   0.41232598    432.86768    39233.357    38868.539            0     33274.37    157532.67      2611706  0.033298096    72571.865 
  292000     6705          500    38789.123    14688.353     24100.77    433.28001   0.40881098     432.8712    39222.403    38841.481            0    33247.134    157385.81      2611706  0.033298096    72488.497 
  293000     6705          500    38797.367    14716.213    24081.154    433.28001   0.40951062     432.8705    39230.647    38836.182            0    33241.046    157329.23      2611706  0.033298096    72448.728 
  294000     6705          500    38807.481    14739.283    24068.199    433.28001   0.40459391    432.87541    39240.761    38835.717            0    33239.006    157237.42      2611706  0.033298096    72386.198 
  295000     6705          500    38865.881    14777.293    24088.588    433.28001   0.40417146    432.87583    39299.161    38874.894            0    33276.565    157321.69      2611706  0.033298096    72402.073 
  296000     6705          500    38923.278    14821.187    24102.091    433.28001   0.41258839    432.86742    39356.558    38911.803            0    33312.189    157433.87      2611706  0.033298096     72435.68 
  297000     6705          500    39016.666    14871.134    24145.532    433.28001   0.40641621    432.87359    39449.946     38982.25            0    33380.926    157620.38      2611706  0.033298096    72492.807 
  298000     6705          500    39076.632    14904.345    24172.286    433.28001   0.39302929    432.88698    39509.912    39020.551            0    33419.836    157670.35      2611706  0.033298096    72486.674 
  299000     6705          500    39133.092    14941.231    24191.861    433.28001   0.38692868    432.89308    39566.372    39047.626            0     33449.64       157678      2611706  0.033298096    72456.727 
  300000     6705          500     39216.47    14968.188    24248.282    433.28001   0.37541698    432.90459     39649.75    39098.632            0    33501.387    157767.15      2611706  0.033298096    72460.271 
  301000     6705          500    39231.524    14964.685    24266.839    433.28001   0.39571662    432.88429    39664.804    39119.678            0    33524.943     157701.5      2611706  0.033298096    72410.764 
  302000     6705          500    39345.231    15002.126    24343.105    433.28001   0.38583103    432.89418    39778.511    39226.252            0    33633.265    158043.52      2611706  0.033298096     72550.82 
  303000     6705          500    39456.061    15043.625    24412.436    433.28001   0.37091527    432.90909    39889.341    39324.962            0    33732.464    158340.68      2611706  0.033298096    72665.131 
  304000     6705          500    39591.764    15083.978    24507.786    433.28001   0.37355602    432.90645    40025.044    39444.248            0    33852.844    158631.58      2611706  0.033298096    72760.338 
  305000     6705          500    39763.521    15146.123    24617.398    433.28001   0.38271442    432.89729    40196.801    39597.319            0    34007.415    159124.48      2611706  0.033298096    72957.342 
  306000     6705          500     39933.97    15192.004    24741.966    433.28001   0.43151211    432.84849     40367.25    39740.325            0    34154.806    159565.51      2611706  0.033298096    73123.332 
  307000     6705          500    40253.037    15268.151    24984.886    433.28001   0.41626515    432.86374    40686.317    40033.964            0    34451.666     160528.5      2611706  0.033298096    73518.357 
  308000     6705          500    40534.405    15327.134    25207.271    433.28001   0.43477067    432.84524    40967.686    40290.029            0    34708.547    161272.11      2611706  0.033298096    73801.925 
  309000     6705          500    40908.052    15411.306    25496.746    433.28001   0.45026209    432.82974    41341.332    40628.297            0    35046.725    162251.77      2611706  0.033298096    74173.689 
  310000     6705          500    41310.001    15509.681    25800.319    433.28001   0.47806865    432.80194    41743.281    40990.738            0    35409.348    163398.37      2611706  0.033298096    74630.503 
  311000     6705          500    41677.964    15580.961    26097.004    433.28001   0.48324675    432.79676    42111.244    41327.576            0    35746.147    164417.27      2611706  0.033298096    75029.826 
  312000     6705          500    42062.571    15650.514    26412.057    433.28001   0.52152414    432.75848    42495.851    41678.608            0    36100.244    165407.53      2611706  0.033298096     75401.37 
  313000     6705          500    42450.135    15703.449    26746.686    433.28001   0.51090929     432.7691    42883.415    42034.695            0    36461.504    166455.54      2611706  0.033298096    75806.526 
  314000     6705          500     42914.21    15766.807    27147.403    433.28001   0.52461873    432.75539     43347.49    42463.417            0    36896.105    167758.87      2611706  0.033298096    76321.372 
  315000     6705          500    43404.146    15868.869    27535.277    433.28001   0.48647411    432.79353    43837.426     42911.65            0    37351.664     169149.7      2611706  0.033298096    76874.034 
  316000     6705          500    44003.589     15986.22    28017.369    433.28001   0.50118752    432.77882    44436.869    43454.722            0    37897.722    170795.43      2611706  0.033298096    77515.892 
  317000     6705          500    44578.969     16115.42    28463.549    433.28001   0.52360901     432.7564    45012.249    43968.513            0    38414.811    172498.81      2611706  0.033298096    78207.876 
  318000     6705          500    45197.294    16268.646    28928.648    433.28001   0.55427574    432.72573    45630.574    44520.601            0    38970.765    174381.19      2611706  0.033298096    78983.323 
  319000     6705          500    45884.294    16432.242    29452.052    433.28001   0.58446741    432.69554    46317.574    45135.503            0    39589.742    176452.68      2611706  0.033298096     79832.65 
  320000     6705          500    46453.123    16567.136    29885.986    433.28001   0.59027462    432.68973    46886.403    45632.586            0      40093.1    178022.12      2611706  0.033298096    80446.485 
  321000     6705          500    47072.977    16692.685    30380.292    433.28001   0.61570477     432.6643    47506.257    46183.694            0    40650.317    179786.61      2611706  0.033298096    81148.675 
  322000     6705          500    47742.418    16852.915    30889.503    433.28001   0.62727238    432.65273    48175.698     46772.19            0    41244.258    181743.81      2611706  0.033298096    81938.662 
  323000     6705          500    48460.794    17005.903     31454.89    433.28001   0.63871745    432.64129    48894.074    47413.449            0    41888.562    183704.18      2611706  0.033298096    82700.573 
  324000     6705          500    49143.135    17159.649    31983.487    433.28001   0.64893904    432.63107    49576.415    48017.212            0    42493.928    185567.84      2611706  0.033298096    83425.267 
  325000     6705          500    49859.561    17307.465    32552.096    433.28001   0.64711537    432.63289    50292.841    48653.158            0    43133.619     187601.6      2611706  0.033298096    84233.396 
  326000     6705          500    50599.209    17462.666    33136.543    433.28001   0.67193139    432.60807    51032.489    49317.382            0    43804.188    189797.71      2611706  0.033298096    85126.878 
  327000     6705          500    51210.954    17527.031    33683.924    433.28001    1.8756948    431.40431    51644.234    49903.903            0    44400.567    191643.17      2611706  0.033298096    85883.712 
  328000     6705          500    51970.109    17608.148    34361.961    433.28001    0.6850756    432.59493    52403.389    50627.376            0    45133.961    193850.49      2611706  0.033298096    86772.105 
  329000     6705          500    52783.751    17764.378    35019.373    433.28001   0.68211097     432.5979    53217.031    51361.265            0    45877.963    196219.25      2611706  0.033298096    87726.107 
  330000     6705          500    53615.911    17922.205    35693.707    433.28001   0.70245717    432.57755    54049.191    52116.556            0    46641.151     198640.5      2611706  0.033298096    88700.946 
  331000     6705          500    54414.427    18040.017    36374.411    433.28001   0.78378511    432.49622    54847.707    52848.512            0    47381.796    200938.79      2611706  0.033298096    89621.001 
  332000     6705          500    55261.198    18199.808     37061.39    433.28001   0.80730968     432.4727    55694.478    53614.828            0    48157.999    203354.22      2611706  0.033298096    90583.306 
  333000     6705          500    56064.797    18373.526    37691.271    433.28001   0.86074355    432.41926    56498.077    54317.744            0    48867.965    205515.71      2611706  0.033298096     91416.32 
  334000     6705          500    56493.795    18385.061    38108.734    433.28001    2.2378343    431.04217    56927.075    54721.656            0    49275.804    206506.23      2611706  0.033298096    91760.788 
  335000     6705          500    57233.837    18477.997     38755.84    433.28001    0.8849518    432.39505    57667.117    55416.637            0    49980.561    208542.51      2611706  0.033298096     92555.98 
  336000     6705          500    58139.729    18613.843    39525.887    433.28001   0.85915522    432.42085    58573.009    56252.621            0    50823.466    211161.72      2611706  0.033298096    93607.031 
  337000     6705          500    59083.062    18763.468    40319.594    433.28001    0.8613559    432.41865    59516.342    57117.666            0    51698.252    213785.51      2611706  0.033298096    94637.926 
  338000     6705          500    60216.839    18944.265    41272.574    433.28001   0.89289538    432.38711    60650.119    58168.254            0    52759.486    217093.42      2611706  0.033298096    95971.665 
  339000     6705          500    61401.669      19142.6    42259.068    433.28001   0.99528564    432.28472    61834.949    59270.059            0    53868.058     220568.9      2611706  0.033298096    97376.891 
  340000     6705          500    62539.921    19334.661     43205.26    433.28001    1.0890823    432.19092    62973.201    60322.091            0    54928.701    223861.49      2611706  0.033298096    98698.492 
  341000     6705          500    63755.157    19553.817    44201.341    433.28001    1.2662173    432.01379    64188.437    61418.066            0    56039.949    227299.22      2611706  0.033298096     100061.9 
  342000     6705          500    65124.591     19828.02     45296.57    433.28001    1.4112784    431.86873    65557.871    62651.275            0    57282.615    231270.49      2611706  0.033298096    101658.02 
  343000     6705          500    66472.872    20094.899    46377.974    433.28001    1.5451267    431.73488    66906.152    63855.013            0    58488.997    235062.64      2611706  0.033298096    103157.24 
  344000     6705          500    67500.261    20164.542    47335.718    433.28001    1.7795716    431.50043    67933.541    64846.726            0    59484.623    237894.23      2611706  0.033298096    104264.04 
  345000     6705          500    68961.339    20441.603    48519.735    433.28001    1.7134132    431.56659    69394.619    66186.063            0    60827.133    242140.72      2611706  0.033298096    105972.78 
  346000     6705          500    70455.605    20737.967    49717.638    433.28001    1.8184445    431.46156    70888.885    67521.077            0    62169.128    246307.68      2611706  0.033298096    107612.37 
  347000     6705          500    71903.479    21077.841    50825.639    433.28001    1.8610741    431.41893    72336.759    68801.562            0    63456.615    250449.06      2611706  0.033298096    109264.73 
  348000     6705          500    73040.096    21271.961    51768.135    433.28001    2.0115524    431.26845    73473.376    69879.904            0     64539.24    253867.84      2611706  0.033298096    110664.74 
  349000     6705          500    74217.345    21535.253    52682.091    433.28001     2.154205     431.1258    74650.625    70962.441            0    65627.553    257305.57      2611706  0.033298096    112051.46 
  350000     6705          500    75247.429    21750.936    53496.493    433.28001     2.552564    430.72744    75680.709    71896.713            0    66566.684    260225.37      2611706  0.033298096    113210.72 
  351000     6705          500    76227.178    21778.557    54448.622    433.28001    3.5671365    429.71287    76660.458    72900.883            0    67573.095    263081.89      2611706  0.033298096    114362.05 
  352000     6705          500     77581.97    22055.521    55526.448    433.28001    3.2490945    430.03091     78015.25    74182.536            0    68858.778    267274.65      2611706  0.033298096    116103.03 
  353000     6705          500    78638.915    22334.398    56304.517    433.28001     3.928195    429.35181    79072.195    75095.768            0    69777.201    270131.23      2611706  0.033298096    117207.03 
  354000     6705          500     79485.45    22697.012    56788.438    433.28001    4.9642575    428.31575     79918.73     75748.26            0    70432.755    272456.83      2611706  0.033298096    118114.37 
  355000     6705          500    80134.591    23097.492      57037.1    433.28001    5.6173203    427.66269    80567.872    76156.473            0    70847.248    274104.15      2611706  0.033298096    118726.72 
  356000     6705          500     80433.31    23495.641    56937.669    433.28001    6.9462892    426.33372     80866.59    76196.308            0    70890.676    274504.62      2611706  0.033298096    118789.14 
  357000     6705          500    80371.785    23806.651    56565.133    433.28001    8.7895868    424.49042    80805.065    75898.455            0    70591.434    273638.47      2611706  0.033298096    118295.54 
  358000     6705          500     80165.63    24009.746    56155.884    433.28001    7.6845929    425.59541     80598.91    75500.726            0     70192.73    272123.02      2611706  0.033298096    117492.33 
  359000     6705          500     80018.73    24244.215    55774.515    433.28001    7.8596784    425.42033     80452.01    75169.933            0    69861.586    271172.16      2611706  0.033298096    116999.14 
  360000     6705          500    79959.088    24530.244    55428.844    433.28001    8.6641912    424.61581    80392.368    74884.922            0    69571.986    270161.03      2611706  0.033298096    116415.44 
  361000     6705          500    79706.934    24797.384     54909.55    433.28001    11.762881    421.51713    80140.214    74417.858            0    69106.601     268664.4      2611706  0.033298096       115652 
  362000     6705          500    78875.146    24664.923    54210.223    433.28001     8.393388    424.88662    79308.426    73545.895            0    68232.055    264888.88      2611706  0.033298096    113846.14 
  363000     6705          500    78514.068     24752.38    53761.687    433.28001    7.6479867    425.63202    78947.348    73138.691            0    67823.559    263333.61      2611706  0.033298096    113113.55 
  364000     6705          500    77804.112    24640.147    53163.965    433.28001    7.6343984    425.64561    78237.392    72449.788            0    67146.596    260511.18      2611706  0.033298096    111817.63 
  365000     6705          500    77441.247    24749.773    52691.474    433.28001    7.8921725    425.38783    77874.527    72012.383            0    66720.512    258986.89      2611706  0.033298096    111105.14 
  366000     6705          500    76976.238    24776.897    52199.341    433.28001    7.3619837    425.91802    77409.518    71517.635            0    66225.538    256866.37      2611706  0.033298096    110089.56 
  367000     6705          500    76471.397    24786.866    51684.531    433.28001    6.9094445    426.37056    76904.677    70995.052            0    65701.932    254764.55      2611706  0.033298096    109109.87 
  368000     6705          500    75936.053    24857.972    51078.081    433.28001    6.7712131    426.50879    76369.333    70413.738            0    65110.807    252552.11      2611706  0.033298096    108081.04 
  369000     6705          500    75469.817    24854.302    50615.515    433.28001    6.4467408    426.83327    75903.097    69947.478            0    64640.535    250490.89      2611706  0.033298096    107102.58 
  370000     6705          500    75167.475    24886.558    50280.918    433.28001    6.0833403    427.19667    75600.755     69629.82            0    64328.348    248927.28      2611706  0.033298096    106328.84 
  371000     6705          500    74565.907    24913.923    49651.985    433.28001    5.7614146    427.51859    74999.187    68998.946            0    63698.251    246615.87      2611706  0.033298096    105279.93 
  372000     6705          500    73973.799    24918.924    49054.874    433.28001     5.619634    427.66037    74407.079    68390.585            0    63090.186    244200.21      2611706  0.033298096    104161.25 
  373000     6705          500    73378.539    24888.698     48489.84    433.28001    5.4238686    427.85614    73811.819    67803.158            0    62504.183    241965.56      2611706  0.033298096    103155.55 
  374000     6705          500    72925.886    24897.668    48028.217    433.28001      5.56205    427.71796    73359.166     67357.34            0    62055.661    240145.89      2611706  0.033298096    102316.94 
  375000     6705          500    72542.676    24856.931    47685.745    433.28001    5.5760537    427.70395    72975.956    67001.776            0    61701.911    238458.78      2611706  0.033298096    101517.05 
  376000     6705          500    72167.064    24842.825    47324.238    433.28001    5.3498521    427.93015    72600.344    66674.494            0    61378.567    237093.27      2611706  0.033298096    100909.79 
  377000     6705          500    71636.996    24814.463    46822.534    433.28001    4.9737475    428.30626    72070.276    66154.912            0    60856.506    234965.25      2611706  0.033298096    99929.509 
  378000     6705          500    71236.439     24821.34    46415.099    433.28001    4.8964448    428.38356    71669.719    65756.825            0    60452.513    233262.22      2611706  0.033298096    99130.495 
  379000     6705          500    70728.617    24798.365    45930.252    433.28001    4.3245405    428.95547    71161.897    65267.786            0     59959.69    231233.01      2611706  0.033298096    98197.184 
  380000     6705          500    70255.799    24756.103    45499.696    433.28001    3.9727181    429.30729    70689.079     64842.66            0    59537.478    229474.04      2611706  0.033298096    97408.181 
  381000     6705          500     69822.52    24731.275    45091.246    433.28001    3.6050675    429.67494      70255.8    64435.899            0    59132.376    227947.22      2611706  0.033298096    96737.339 
  382000     6705          500    69530.204    24730.818    44799.385    433.28001    3.4538056     429.8262    69963.484    64150.739            0    58846.087    226650.04      2611706  0.033298096    96120.896 
  383000     6705          500    69346.557    24798.931    44547.626    433.28001    3.4270309    429.85298    69779.837    63937.161            0    58630.412    225691.64      2611706  0.033298096    95645.618 
  384000     6705          500    68983.903    24829.451    44154.451    433.28001    3.0535818    430.22642    69417.183    63548.737            0    58240.005    224052.42      2611706  0.033298096    94862.493 
  385000     6705          500    68680.172     24857.96    43822.213    433.28001    3.1193889    430.16062    69113.452    63199.662            0     57889.13    222481.02      2611706  0.033298096    94084.832 
  386000     6705          500      68413.7    24921.699    43492.001    433.28001    3.2859505    429.99406     68846.98      62888.1            0    57572.969    221212.05      2611706  0.033298096    93469.839 
  387000     6705          500    68074.532    24945.088    43129.444    433.28001    3.2438275    430.03618    68507.812    62500.625            0    57182.728    219596.03      2611706  0.033298096    92686.542 
  388000     6705          500    67858.601    24999.806    42858.795    433.28001    3.2302245    430.04978    68291.881    62216.789            0    56897.728    218335.67      2611706  0.033298096    92045.826 
  389000     6705          500     67647.41    25076.864    42570.546    433.28001    3.3486799    429.93133     68080.69    61948.782            0    56627.265    217306.08      2611706  0.033298096    91543.771 
  390000     6705          500    67416.019    25113.199     42302.82    433.28001    3.3490184    429.93099    67849.299    61679.638            0    56357.485     216087.5      2611706  0.033298096    90938.169 
  391000     6705          500    67189.007    25147.197     42041.81    433.28001    3.0699486    430.21006    67622.287    61407.999            0    56085.479    214775.89      2611706  0.033298096    90272.814 
  392000     6705          500    66981.998    25156.235    41825.763    433.28001     2.742956    430.53705    67415.278    61173.173            0    55849.802    213584.96      2611706  0.033298096    89669.216 
  393000     6705          500     66761.76    25169.452    41592.308    433.28001    2.5603118    430.71969     67195.04    60933.114            0    55610.455    212432.52      2611706  0.033298096    89097.348 
  394000     6705          500    66574.631    25174.942    41399.689    433.28001    2.2971466    430.98286    67007.911    60736.919            0    55414.023     211545.2      2611706  0.033298096    88667.808 
  395000     6705          500    66329.116    25175.619    41153.497    433.28001    2.1138073     431.1662    66762.396     60467.58            0    55145.764    210348.65      2611706  0.033298096    88084.387 
  396000     6705          500    66141.456    25199.493    40941.963    433.28001    2.0059317    431.27407    66574.736    60258.589            0    54937.394    209369.81      2611706  0.033298096    87599.031 
  397000     6705          500    65845.586    25207.529    40638.057    433.28001    1.8440858    431.43592    66278.866    59939.374            0    54617.479     207986.4      2611706  0.033298096    86931.869 
  398000     6705          500    65656.451    25238.905    40417.546    433.28001    1.6877471    431.59226    66089.731    59724.179            0    54398.263    206957.43      2611706  0.033298096    86416.661 
  399000     6705          500    65524.106    25289.336     40234.77    433.28001    1.7010265    431.57898    65957.386    59556.885            0    54228.654    206158.54      2611706  0.033298096    86007.767 
  400000     6705          500    65362.025    25336.912    40025.113    433.28001    1.5017683    431.77824    65795.305    59353.218            0    54021.171    205191.58      2611706  0.033298096    85514.005 
  401000     6705          500    65245.475    25383.425     39862.05    433.28001    1.4317871    431.84822    65678.755    59203.253            0    53866.968    204590.16      2611706  0.033298096    85216.554 
  402000     6705          500    65075.816    25409.209    39666.606    433.28001    1.3361319    431.94387    65509.096    59008.678            0    53670.948    203734.14      2611706  0.033298096    84795.504 
  403000     6705          500    64943.659     25413.35     39530.31    433.28001    1.2681888    432.01182    65376.939    58860.446            0    53520.963    202876.12      2611706  0.033298096    84350.216 
  404000     6705          500    64768.396    25420.802    39347.594    433.28001     1.210546    432.06946    65201.676    58668.144            0    53329.163    201922.28      2611706  0.033298096    83872.587 
  405000     6705          500    64625.073    25443.617    39181.456    433.28001    1.1630803    432.11693    65058.353    58502.345            0    53163.671    201212.72      2611706  0.033298096    83525.222 
  406000     6705          500    64512.862    25481.318    39031.543    433.28001    1.0663495    432.21366    64946.142    58355.775            0    53019.442    200543.69      2611706  0.033298096     83183.64 
  407000     6705          500    64432.155    25529.507    38902.649    433.28001    1.1028065     432.1772    64865.435    58232.254            0    52895.877    199978.14      2611706  0.033298096    82886.208 
  408000     6705          500    64359.521    25567.286    38792.235    433.28001    1.0186652    432.26134    64792.801     58114.83            0    52776.972    199341.66      2611706  0.033298096    82540.311 
  409000     6705          500    64261.261    25598.477    38662.784    433.28001   0.95272893    432.32728    64694.541    57988.145            0     52649.57    198752.33      2611706  0.033298096     82239.06 
  410000     6705          500    64110.086    25611.748    38498.338    433.28001   0.95547929    432.32453    64543.366    57822.564            0    52484.085    198072.83      2611706  0.033298096    81914.952 
  411000     6705          500    63950.345    25623.153    38327.192    433.28001   0.87726194    432.40274    64383.625    57651.102            0    52314.618    197332.42      2611706  0.033298096    81558.734 
  412000     6705          500    63820.588    25635.935    38184.652    433.28001   0.87985629    432.40015    64253.868    57505.828            0    52171.157    196616.09      2611706  0.033298096    81198.898 
  413000     6705          500    63760.814    25668.572    38092.242    433.28001   0.80815953    432.47185    64194.094    57423.801            0    52089.095    196117.87      2611706  0.033298096    80929.926 
  414000     6705          500    63637.582    25696.589    37940.993    433.28001   0.89197798    432.38803    64070.862    57272.664            0    51936.497    195505.47      2611706  0.033298096    80629.845 
  415000     6705          500     63522.58    25731.277    37791.303    433.28001   0.93571031     432.3443     63955.86    57114.109            0    51778.837     194815.9      2611706  0.033298096    80277.368 
  416000     6705          500    63450.567    25786.376     37664.19    433.28001   0.88312009    432.39689    63883.847    56994.692            0    51657.942    194301.91      2611706  0.033298096    80006.234 
  417000     6705          500    63363.689    25829.765    37533.924    433.28001   0.86598958    432.41402    63796.969    56869.334            0    51529.771    193752.58      2611706  0.033298096    79722.539 
  418000     6705          500    63276.272    25869.707    37406.565    433.28001   0.76452282    432.51548    63709.552    56739.187            0    51399.457    193148.95      2611706  0.033298096    79405.862 
  419000     6705          500    63184.313    25906.312    37278.001    433.28001   0.71947315    432.56053    63617.593    56616.758            0    51275.545    192573.03      2611706  0.033298096    79108.968 
  420000     6705          500    63053.912    25927.916    37125.996    433.28001   0.72514223    432.55486    63487.192    56458.793            0    51115.927    191899.31      2611706  0.033298096    78775.665 
  421000     6705          500    62942.379    25941.193    37001.185    433.28001   0.63647616    432.64353    63375.659    56324.892            0    50981.669    191235.44      2611706  0.033298096    78436.831 
  422000     6705          500    62840.967    25957.421    36883.546    433.28001   0.70363486    432.57637    63274.247     56216.34            0     50869.31    190774.18      2611706  0.033298096    78216.079 
  423000     6705          500     62787.02    25966.008    36821.012    433.28001   0.63134116    432.64866      63220.3    56158.782            0      50807.7    190407.33      2611706  0.033298096    78024.122 
  424000     6705          500    62733.319    25986.491    36746.828    433.28001   0.66181009     432.6182    63166.599    56089.292            0    50736.922    190039.42      2611706  0.033298096    77831.369 
  425000     6705          500    62662.784     26002.84    36659.944    433.28001   0.63080157     432.6492    63096.064    56002.628            0    50650.957    189645.09      2611706  0.033298096    77632.735 
  426000     6705          500    62561.317    25993.984    36567.333    433.28001   0.64209656    432.63791    62994.597    55899.145            0    50545.436    189110.39      2611706  0.033298096    77366.964 
  427000     6705          500    62440.217    25986.026    36454.191    433.28001   0.59336017    432.68665    62873.497    55783.458            0    50427.075    188545.27      2611706  0.033298096    77094.573 
  428000     6705          500    62290.948     25974.87    36316.079    433.28001   0.57242994    432.70758    62724.228     55645.81            0    50288.184    187942.13      2611706  0.033298096    76816.145 
  429000     6705          500    62158.468    25970.931    36187.537    433.28001   0.49641814    432.78359    62591.748    55520.047            0    50161.839    187512.39      2611706  0.033298096    76633.787 
  430000     6705          500    62066.262    25973.927    36092.334    433.28001   0.52240819     432.7576    62499.542     55424.19            0    50066.897    187076.51      2611706  0.033298096    76422.958 
  431000     6705          500    61995.996    25985.668    36010.328    433.28001   0.53414568    432.74586    62429.276    55341.836            0    49986.613    186663.64      2611706  0.033298096     76212.78 
  432000     6705          500     61927.55    25987.288    35940.262    433.28001   0.47368845    432.80632     62360.83    55271.612            0    49916.703    186310.92      2611706  0.033298096     76038.39 
  433000     6705          500    61823.697    25981.142    35842.555    433.28001   0.50380719     432.7762    62256.977    55163.966            0    49809.272    185820.51      2611706  0.033298096    75801.253 
  434000     6705          500    61761.809     26001.08    35760.729    433.28001     0.367617    432.91239    62195.089    55089.887            0     49734.04    185540.07      2611706  0.033298096    75667.184 
  435000     6705          500    61677.962    26025.802     35652.16    433.28001   0.38570716     432.8943    62111.242    54993.744            0    49637.051    185205.96      2611706  0.033298096    75513.655 
  436000     6705          500    61612.209    26055.175    35557.033    433.28001   0.33780742     432.9422    62045.489    54911.898            0    49553.744     184876.6      2611706  0.033298096    75351.945 
  437000     6705          500    61512.763    26058.245    35454.518    433.28001     0.358674    432.92133    61946.043    54806.414            0    49446.988    184432.74      2611706  0.033298096     75140.66 
  438000     6705          500    61420.008    26067.397    35352.611    433.28001   0.31050985     432.9695    61853.288    54701.969            0    49340.712    183941.54      2611706  0.033298096    74896.232 
  439000     6705          500    61357.759    26072.249    35285.511    433.28001   0.34071932    432.93929    61791.039    54629.993            0    49267.656    183610.13      2611706  0.033298096    74731.107 
  440000     6705          500    61294.479    26086.958     35207.52    433.28001   0.34125759    432.93875    61727.759    54559.706            0    49196.181    183346.66      2611706  0.033298096    74608.299 
  441000     6705          500    61192.511    26096.725    35095.786    433.28001    0.3241454    432.95586    61625.791    54446.311            0    49082.348    182903.08      2611706  0.033298096    74398.734 
  442000     6705          500    61115.923    26107.738    35008.185    433.28001   0.33016203    432.94984    61549.203    54358.527            0    48994.479    182494.23      2611706  0.033298096    74194.905 
  443000     6705          500    61017.355    26113.419    34903.937    433.28001    0.3158767    432.96413    61450.635    54242.949            0    48877.713    182010.73      2611706  0.033298096    73958.765 
  444000     6705          500    60916.023    26125.649    34790.375    433.28001   0.32528456    432.95472    61349.303    54129.053            0    48761.696    181537.78      2611706  0.033298096    73730.794 
  445000     6705          500    60811.593     26131.46    34680.133    433.28001   0.29398024    432.98603    61244.873    54008.208            0    48639.472     180943.8      2611706  0.033298096    73430.473 
  446000     6705          500      60763.9    26141.103    34622.797    433.28001   0.27134819    433.00866     61197.18    53941.601            0    48571.408    180568.04      2611706  0.033298096    73229.218 
  447000     6705          500    60737.626    26170.355    34567.272    433.28001   0.30094364    432.97906    61170.906    53893.613            0    48520.851    180321.83      2611706  0.033298096    73094.294 
  448000     6705          500    60707.962    26198.488    34509.474    433.28001    0.2987809    432.98123    61141.242    53841.855            0    48466.863     180070.6      2611706  0.033298096    72958.372 
  449000     6705          500    60659.839    26226.704    34433.135    433.28001   0.27272187    433.00728    61093.119    53765.799            0    48388.957    179746.54      2611706  0.033298096    72789.099 
  450000     6705          500    60614.571    26250.169    34364.402    433.28001   0.26923383    433.01077    61047.851    53690.646            0    48314.288    179379.08      2611706  0.033298096    72591.444 
  451000     6705          500    60557.744    26265.404    34292.339    433.28001   0.29824619    432.98176    60991.024    53611.728            0      48235.7     178987.6      2611706  0.033298096     72386.15 
  452000     6705          500    60444.902    26270.963     34173.94    433.28001   0.25214124    433.02786    60878.182    53484.528            0    48107.394    178465.84      2611706  0.033298096    72135.296 
  453000     6705          500    60351.601    26271.275    34080.326    433.28001   0.25150197     433.0285    60784.881     53381.49            0    48003.648    178075.13      2611706  0.033298096    71952.849 
  454000     6705          500     60300.22    26283.994    34016.226    433.28001   0.23084883    433.04916      60733.5    53320.965            0    47942.047    177782.62      2611706  0.033298096    71804.922 
  455000     6705          500    60203.114    26287.416    33915.698    433.28001   0.26141773    433.01859    60636.394     53209.51            0    47831.065    177263.76      2611706  0.033298096    71546.192 
  456000     6705          500    60081.094     26296.74    33784.354    433.28001   0.22348157    433.05652    60514.374    53075.876            0    47696.907    176760.45      2611706  0.033298096     71312.29 
  457000     6705          500    60008.131    26304.828    33703.303    433.28001   0.19387838    433.08613    60441.411    52995.049            0    47615.749    176403.44      2611706  0.033298096    71138.034 
  458000     6705          500    59977.465      26316.8    33660.666    433.28001   0.21003942    433.06997    60410.745    52950.952            0    47570.823    176163.76      2611706  0.033298096    71009.815 
  459000     6705          500    59994.862     26342.53    33652.332    433.28001   0.19902372    433.08098    60428.142    52950.927            0    47570.487    176064.15      2611706  0.033298096    70938.036 
  460000     6705          500    59963.859     26356.49    33607.368    433.28001   0.19284189    433.08716    60397.139    52904.173            0    47524.027    175788.12      2611706  0.033298096    70787.722 
  461000     6705          500    59911.629    26374.954    33536.675    433.28001   0.20642438    433.07358    60344.909    52835.906            0    47455.411    175476.44      2611706  0.033298096     70628.56 
  462000     6705          500    59859.215    26385.962    33473.253    433.28001   0.15862223    433.12138    60292.495    52768.984            0    47388.475    175208.82      2611706  0.033298096     70496.54 
  463000     6705          500    59821.524    26394.079    33427.445    433.28001   0.18103583    433.09897    60254.804    52723.176            0    47341.987     175020.8      2611706  0.033298096    70404.321 
  464000     6705          500    59768.863    26407.346    33361.516    433.28001    0.1539116    433.12609    60202.143     52656.02            0    47275.357    174745.26      2611706  0.033298096    70267.595 
  465000     6705          500    59702.563    26421.066    33281.498    433.28001   0.14894861    433.13106    60135.843    52576.686            0    47196.192    174412.83      2611706  0.033298096     70104.33 
  466000     6705          500    59603.891    26426.694    33177.197    433.28001   0.12880624     433.1512    60037.171    52465.633            0    47084.207    173926.99      2611706  0.033298096    69866.822 
  467000     6705          500    59532.115    26431.088    33101.027    433.28001   0.12691703    433.15309    59965.395    52377.355            0    46995.277    173532.18      2611706  0.033298096    69668.649 
  468000     6705          500    59493.065    26440.715     33052.35    433.28001   0.13249002    433.14752    59926.345     52321.92            0     46939.51    173259.01      2611706  0.033298096     69525.03 
  469000     6705          500    59470.709    26452.532    33018.176    433.28001   0.15841067     433.1216    59903.989    52285.619            0    46902.176    173045.06      2611706  0.033298096    69407.494 
  470000     6705          500    59438.446    26461.484    32976.962    433.28001   0.16250607     433.1175    59871.726    52239.398            0        46855    172766.98      2611706  0.033298096    69256.693 
  471000     6705          500    59372.874    26455.891    32916.983    433.28001   0.16242864    433.11758    59806.154    52163.265            0    46778.156    172363.13      2611706  0.033298096    69049.176 
  472000     6705          500    59317.747    26455.962    32861.785    433.28001   0.17832933    433.10168    59751.027    52097.859            0    46712.092    172056.59      2611706  0.033298096    68894.942 
  473000     6705          500    59246.636    26458.102    32788.534    433.28001   0.12643639    433.15357    59679.916     52016.25            0    46630.142    171726.14      2611706  0.033298096    68735.847 
  474000     6705          500    59171.474    26451.896    32719.578    433.28001   0.11211758    433.16789    59604.754    51934.665            0    46547.058    171377.56      2611706  0.033298096    68568.119 
  475000     6705          500    59100.886    26442.593    32658.293    433.28001  0.096178314    433.18383    59534.166    51861.073            0    46473.012    171086.71      2611706  0.033298096    68432.997 
  476000     6705          500    59065.812    26448.519    32617.293    433.28001   0.12851769    433.15149    59499.092    51820.062            0    46431.522    170922.04      2611706  0.033298096    68353.493 
  477000     6705          500    59026.694    26453.072    32573.622    433.28001      0.10318    433.17683    59459.974    51773.872            0    46384.936    170702.12      2611706  0.033298096    68242.579 
  478000     6705          500    58934.892     26437.15    32497.742    433.28001    0.1427893    433.13722    59368.172    51681.887            0    46292.805    170308.47      2611706  0.033298096     68057.41 
  479000     6705          500    58858.734    26425.612    32433.123    433.28001  0.093229293    433.18678    59292.014    51612.804            0    46223.899    170015.71      2611706  0.033298096    67924.529 
  480000     6705          500    58775.977    26404.405    32371.572    433.28001  0.077843958    433.20216    59209.257    51543.068            0    46154.175    169681.96      2611706  0.033298096    67770.556 
  481000     6705          500    58700.563    26388.049    32312.514    433.28001  0.085951565    433.19405    59133.843    51479.511            0    46090.617     169413.8      2611706  0.033298096    67652.318 
  482000     6705          500    58652.916    26375.848    32277.067    433.28001  0.074932888    433.20507    59086.196     51445.65            0    46055.835    169222.87      2611706  0.033298096    67564.419 
  483000     6705          500    58584.454    26362.788    32221.666    433.28001  0.075575286    433.20443    59017.734    51389.884            0     45999.37    168980.51      2611706  0.033298096    67457.739 
  484000     6705          500    58519.252    26348.402     32170.85    433.28001  0.095978487    433.18403    58952.532    51336.979            0    45947.409    168761.08      2611706  0.033298096    67363.124 
  485000     6705          500    58484.126    26342.431    32141.694    433.28001  0.056212105    433.22379    58917.406    51315.918            0    45926.048     168694.3      2611706  0.033298096    67343.708 
  486000     6705          500    58445.554    26348.767    32096.787    433.28001  0.057782912    433.22222    58878.834     51286.02            0    45895.924    168632.96      2611706  0.033298096    67329.739 
  487000     6705          500    58379.954    26348.548    32031.406    433.28001  0.055254788    433.22475    58813.234    51226.053            0    45835.632    168446.55      2611706  0.033298096    67255.628 
  488000     6705          500      58324.3    26341.023    31983.276    433.28001  0.061196259    433.21881     58757.58    51177.899            0    45787.262    168262.48      2611706  0.033298096    67176.848 
  489000     6705          500    58262.222    26331.634    31930.588    433.28001  0.076260966    433.20375    58695.502    51127.704            0    45736.463    168090.42      2611706  0.033298096    67109.376 
  490000     6705          500    58207.404    26318.221    31889.183    433.28001  0.055732723    433.22427    58640.684    51091.827            0    45700.042    167957.74      2611706  0.033298096    67061.615 
  491000     6705          500    58144.348    26295.755    31848.592    433.28001  0.060066528    433.21994    58577.628    51041.176            0    45649.244    167709.73      2611706  0.033298096    66948.152 
  492000     6705          500    58104.076    26284.485    31819.591    433.28001  0.043930489    433.23608    58537.356    51003.949            0    45612.573    167520.47      2611706  0.033298096    66856.755 
  493000     6705          500    58059.526    26280.127    31779.398    433.28001  0.041769732    433.23824    58492.806    50963.039            0    45571.335    167363.74      2611706  0.033298096    66787.938 
  494000     6705          500    58017.192    26267.377    31749.816    433.28001  0.052671975    433.22733    58450.472    50929.191            0    45536.695    167193.26      2611706  0.033298096    66709.325 
  495000     6705          500    57980.541    26259.556    31720.985    433.28001  0.055881576    433.22412    58413.821    50901.464            0    45508.437    167107.65      2611706  0.033298096     66679.29 
  496000     6705          500    57953.218     26251.15    31702.067    433.28001  0.041486549    433.23852    58386.498    50876.606            0    45483.998    166993.29      2611706  0.033298096    66625.893 
  497000     6705          500    57956.708    26254.355    31702.353    433.28001  0.041683783    433.23832    58389.988    50879.291            0    45487.169    166978.62      2611706  0.033298096    66614.757 
  498000     6705          500    57944.978    26262.958     31682.02    433.28001   0.04768316    433.23232    58378.259    50867.547            0     45475.91    166974.34      2611706  0.033298096    66619.328 
  499000     6705          500     57935.36    26263.632    31671.728    433.28001  0.039668761    433.24034     58368.64    50857.818            0    45465.738    166912.64      2611706  0.033298096    66587.377 
  500000     6705          500    57917.602    26268.455    31649.147    433.28001  0.054996196    433.22501    58350.882    50835.909            0    45443.378    166811.01      2611706  0.033298096    66535.923 
Loop time of 104978 on 1 procs for 500000 steps with 6705 atoms

Performance: 0.004 ns/day, 5832.098 hours/ns, 4.763 timesteps/s
100.0% CPU use with 1 MPI tasks x no OpenMP threads

MPI task timing breakdown:
Section |  min time  |  avg time  |  max time  |%varavg| %total
---------------------------------------------------------------
Pair    | 95683      | 95683      | 95683      |   0.0 | 91.15
Bond    | 185.06     | 185.06     | 185.06     |   0.0 |  0.18
Kspace  | 8549.1     | 8549.1     | 8549.1     |   0.0 |  8.14
Neigh   | 131.71     | 131.71     | 131.71     |   0.0 |  0.13
Comm    | 0.91884    | 0.91884    | 0.91884    |   0.0 |  0.00
Output  | 237.27     | 237.27     | 237.27     |   0.0 |  0.23
Modify  | 180.65     | 180.65     | 180.65     |   0.0 |  0.17
Other   |            | 9.566      |            |       |  0.01

Nlocal:    6705 ave 6705 max 6705 min
Histogram: 1 0 0 0 0 0 0 0 0 0
Nghost:    117 ave 117 max 117 min
Histogram: 1 0 0 0 0 0 0 0 0 0
Neighs:    465882 ave 465882 max 465882 min
Histogram: 1 0 0 0 0 0 0 0 0 0
FullNghs:  1.0933e+06 ave 1.0933e+06 max 1.0933e+06 min
Histogram: 1 0 0 0 0 0 0 0 0 0

Total # of neighbors = 1093298
Ave neighs/atom = 163.057
Ave special neighs/atom = 6.5393
Neighbor list builds = 2630
Dangerous builds = 1

print "Selesai"
Selesai
# End #
Total wall time: 29:10:05
