LAMMPS (20 Nov 2019)
# Nanodroplet of water on the graphene nanoribbon #

# ------------------------ INITIALIZATION ----------------------------
echo			both
units			metal
boundary		p p p
atom_style		full
bond_style		harmonic
angle_style		harmonic
dimension		3
neighbor		0.3 bin

# ----------------------- ATOM DEFINITION ----------------------------
read_data pos1.data
  orthogonal box = (-36.5268 -10.3138 -46.4164) to (84.4197 110.992 130.921)
  1 by 1 by 1 MPI processor grid
  reading atoms ...
  6705 atoms
  scanning bonds ...
  2 = max bonds/atom
  scanning angles ...
  3 = max angles/atom
  reading bonds ...
  6081 bonds
  reading angles ...
  7337 angles
  3 = max # of 1-2 neighbors
  6 = max # of 1-3 neighbors
  18 = max # of 1-4 neighbors
  18 = max # of special neighbors
  special bonds CPU = 0.00185142 secs
  read_data CPU = 0.0162514 secs

# ------------------------ FORCE FIELDS ------------------------------
pair_style hybrid airebo 2.5 0 3 lj/cut/tip4p/long 1 2 1 1 0.1250 9 8
pair_coeff * * lj/cut/tip4p/long 0.0 0.0
pair_coeff 1 2 lj/cut/tip4p/long 0.0 0.0
pair_coeff 2 2 lj/cut/tip4p/long 0.0 0.0
pair_coeff 2 3 lj/cut/tip4p/long 0.0032399 3.19
pair_coeff 1 1 lj/cut/tip4p/long 0.16275 3.16435 # O-O (water TIP4P/2005)
pair_coeff 1 3 lj/cut/tip4p/long 0.0032399 3.19 # O-C (amber)
pair_coeff * * airebo CH.airebo C H NULL
Reading potential file CH.airebo with DATE: 2011-10-25
kspace_style	pppm/tip4p 1.0e-4


#bond_coeff 1 0.0 0.9572 # TIP4P/epsilon
bond_coeff 1 600.0  0.9572 # TIP4P/epsilon
bond_coeff 2 610.0 1.42 # GROMOS53A6

#angle_coeff 1 2.6018473 104.52 # TIP4P/epsilon
angle_coeff 1 75.0 104.52 # TIP4P/epsilon
angle_coeff  2 90.0 120.0 # GROMOS53A6

# Grouping #
group g_C type 3
2016 atoms in group g_C
group g_O type 1
1563 atoms in group g_O
group g_H type 2
3126 atoms in group g_H
group g_W union g_O g_H
4689 atoms in group g_W

compute 3 all pe/atom
compute 4 all stress/atom NULL virial

fix npt all npt temp 400 400 .5 x 0.0 0.0 .5 y 0.0 0.0 .5
fix bp all balance 1000 1 shift z 10 1

thermo_style custom step temp ke pe press vol
timestep 0.00001
run 500
PPPM initialization ...
  extracting TIP4P info from pair style
  using 12-bit tables for long-range coulomb (src/kspace.cpp:323)
  G vector (1/distance) = 0.284733
  grid = 54 54 72
  stencil order = 5
  estimated absolute RMS force accuracy = 0.00156748
  estimated relative force accuracy = 0.000108856
  using double precision FFTW3
  3d grid and FFT values/proc = 268037 209952
WARNING: Using a manybody potential with bonds/angles/dihedrals and special_bond exclusions (src/pair.cpp:226)
Neighbor list info ...
  update every 1 steps, delay 10 steps, check yes
  max neighbors/atom: 2000, page size: 100000
  master list distance cutoff = 9.3
  ghost atom cutoff = 9.3
  binsize = 4.65, bins = 27 27 39
  4 neighbor lists, perpetual/occasional/extra = 4 0 0
  (1) pair airebo, perpetual, skip from (3)
      attributes: full, newton on, ghost
      pair build: skip/ghost
      stencil: none
      bin: none
  (2) pair lj/cut/tip4p/long, perpetual, skip from (4)
      attributes: half, newton on
      pair build: skip
      stencil: none
      bin: none
  (3) neighbor class addition, perpetual
      attributes: full, newton on, ghost
      pair build: full/bin/ghost
      stencil: full/ghost/bin/3d
      bin: standard
  (4) neighbor class addition, perpetual
      attributes: half, newton on
      pair build: half/bin/newton
      stencil: half/bin/3d/newton
      bin: standard
Per MPI rank memory allocation (min/avg/max) = 60.68 | 60.68 | 60.68 Mbytes
Step Temp KinEng PotEng Press Volume 
       0            0            0    1068043.8   -489428.23    2601803.1 
     500    1020421.8    884256.75    148884.89    262982.84    2613554.5 
Loop time of 26.6729 on 1 procs for 500 steps with 6705 atoms

Performance: 0.016 ns/day, 1481.827 hours/ns, 18.746 timesteps/s
100.0% CPU use with 1 MPI tasks x no OpenMP threads

MPI task timing breakdown:
Section |  min time  |  avg time  |  max time  |%varavg| %total
---------------------------------------------------------------
Pair    | 7.7097     | 7.7097     | 7.7097     |   0.0 | 28.90
Bond    | 0.22791    | 0.22791    | 0.22791    |   0.0 |  0.85
Kspace  | 8.7639     | 8.7639     | 8.7639     |   0.0 | 32.86
Neigh   | 1.3544     | 1.3544     | 1.3544     |   0.0 |  5.08
Comm    | 0.0037498  | 0.0037498  | 0.0037498  |   0.0 |  0.01
Output  | 5.2969e-05 | 5.2969e-05 | 5.2969e-05 |   0.0 |  0.00
Modify  | 8.6058     | 8.6058     | 8.6058     |   0.0 | 32.26
Other   |            | 0.007388   |            |       |  0.03

Nlocal:    6705 ave 6705 max 6705 min
Histogram: 1 0 0 0 0 0 0 0 0 0
Nghost:    0 ave 0 max 0 min
Histogram: 1 0 0 0 0 0 0 0 0 0
Neighs:    91776 ave 91776 max 91776 min
Histogram: 1 0 0 0 0 0 0 0 0 0
FullNghs:  521322 ave 521322 max 521322 min
Histogram: 1 0 0 0 0 0 0 0 0 0

Total # of neighbors = 521322
Ave neighs/atom = 77.7512
Ave special neighs/atom = 6.5393
Neighbor list builds = 50
Dangerous builds = 50

#group g_fix region r_fix
variable frc equal 2e-4 # force to be applied to the water molecule
variable ymn equal ylo+20
variable ymx equal yhi-20
variable xmn equal xlo+20
variable xmx equal xhi-20
region middle block ${xmn} ${xmx} ${ymn} ${ymx} -5 5 units box
region middle block -16.6830146721094 ${xmx} ${ymn} ${ymx} -5 5 units box
region middle block -16.6830146721094 64.5759516721094 ${ymn} ${ymx} -5 5 units box
region middle block -16.6830146721094 64.5759516721094 9.56926900949156 ${ymx} -5 5 units box
region middle block -16.6830146721094 64.5759516721094 9.56926900949156 91.1087319905083 -5 5 units box
group middle region middle
1596 atoms in group middle
unfix npt

newton on

change_box all boundary p p p

reset_timestep 0
velocity middle set NULL NULL -20.0 sum no units box
velocity g_O set 0.0 0.0 -20.0 sum yes units box
velocity g_H set 0.0 0.0 -20.0 sum yes units box
#fix	eva g_W evaporate 10000 20 middle 38277 molecule yes
fix grav g_W gravity 5.0 vector 0 0 -20
fix kick g_W addforce ${frc} 0.0 0.0
fix kick g_W addforce 0.0002 0.0 0.0
timestep 0.00001

fix fxlan g_W langevin 400.0 400.0 100.0 48279
fix 1 all nve
fix 3 all temp/rescale 1 400.0 400.0 0.4 1.0

fix 		mysf1 g_C setforce 0.0 NULL 0.0
velocity	g_C set NULL NULL 0

compute myack all ackland/atom
compute myke all ke/atom
compute mype all pe/atom
compute Ek_Graphene g_C reduce sum c_myke
compute Ek_Water g_W reduce sum c_myke
compute Ep_Graphene g_C reduce sum c_mype
compute Ep_Water g_W reduce sum c_mype

compute gofr all rdf 1000  1 1  2 2  1 2  # O-O, H-H, O-H
compute gfr all rdf 1000  1 3  3 3  2 3  # O-O, H-H, O-H
fix rdf all ave/time 100 10 1000 c_gofr[*] file spce-rdfgo.dat mode vector
fix rdf all ave/time 100 10 1000 c_gfr[*] file spce-rdfg.dat mode vector

dump mydump1 all atom 10 dump.Graphene3drop400K.dump

thermo 1000
thermo_style custom step atoms temp pe c_Ep_Graphene c_Ep_Water ke c_Ek_Graphene c_Ek_Water etotal evdwl ecoul epair enthalpy vol density press
thermo_modify lost ignore flush yes
run 	500000
PPPM initialization ...
  extracting TIP4P info from pair style
  using 12-bit tables for long-range coulomb (src/kspace.cpp:323)
  G vector (1/distance) = 0.284573
  grid = 54 54 72
  stencil order = 5
  estimated absolute RMS force accuracy = 0.00157312
  estimated relative force accuracy = 0.000109247
  using double precision FFTW3
  3d grid and FFT values/proc = 268037 209952
WARNING: Using a manybody potential with bonds/angles/dihedrals and special_bond exclusions (src/pair.cpp:226)
Neighbor list info ...
  update every 1 steps, delay 10 steps, check yes
  max neighbors/atom: 2000, page size: 100000
  master list distance cutoff = 9.3
  ghost atom cutoff = 9.3
  binsize = 4.65, bins = 27 27 39
  7 neighbor lists, perpetual/occasional/extra = 4 3 0
  (1) pair airebo, perpetual, skip from (6)
      attributes: full, newton on, ghost
      pair build: skip/ghost
      stencil: none
      bin: none
  (2) pair lj/cut/tip4p/long, perpetual, skip from (7)
      attributes: half, newton on
      pair build: skip
      stencil: none
      bin: none
  (3) compute ackland/atom, occasional, copy from (6)
      attributes: full, newton on
      pair build: copy
      stencil: none
      bin: none
  (4) compute rdf, occasional, copy from (7)
      attributes: half, newton on
      pair build: copy
      stencil: none
      bin: none
  (5) compute rdf, occasional, copy from (7)
      attributes: half, newton on
      pair build: copy
      stencil: none
      bin: none
  (6) neighbor class addition, perpetual
      attributes: full, newton on, ghost
      pair build: full/bin/ghost
      stencil: full/ghost/bin/3d
      bin: standard
  (7) neighbor class addition, perpetual
      attributes: half, newton on
      pair build: half/bin/newton
      stencil: half/bin/3d/newton
      bin: standard
Per MPI rank memory allocation (min/avg/max) = 62.53 | 62.53 | 62.53 Mbytes
Step Atoms Temp PotEng c_Ep_Graphene c_Ep_Water KinEng c_Ek_Graphene c_Ek_Water TotEng E_vdwl E_coul E_pair Enthalpy Volume Density Press 
       0     6705    1021095.4    148888.16     4.479119    148883.69    884840.43   0.76427494    884839.66    1033728.6   -8442.3878            0   -14352.948    1463109.2    2613554.5  0.033274546    263221.41 
    1000     6705          400   -16991.715    4.2466493   -16995.961      346.624  0.003731367    346.62027   -16645.091   -11310.735            0   -17230.663   -22740.789    2613554.5  0.033274546   -3736.8211 
    2000     6705          400   -17395.557    4.1016287   -17399.658      346.624 0.0014330131    346.62257   -17048.933   -11717.668            0   -17638.107   -23555.454    2613554.5  0.033274546   -3988.6661 
    3000     6705          400   -17561.619    4.0328772   -17565.651      346.624 0.00082274458    346.62318   -17214.995   -11886.218            0   -17807.272   -23766.653    2613554.5  0.033274546   -4016.3364 
    4000     6705          400   -17682.455    3.9888246   -17686.444      346.624 0.00057340349    346.62343   -17335.831   -12008.859            0   -17930.515   -23902.041    2613554.5  0.033274546   -4025.2569 
    5000     6705          400   -17752.572    3.9559862   -17756.528      346.624  0.000443261    346.62356   -17405.948   -12080.106            0   -18002.303   -23967.081    2613554.5  0.033274546   -4022.1441 
    6000     6705          400   -17815.049    3.9293697   -17818.978      346.624 0.00036465226    346.62364   -17468.425   -12143.635            0   -18066.307    -24027.07    2613554.5  0.033274546   -4020.6193 
    7000     6705          400   -17873.889    3.9066008   -17877.796      346.624 0.00031267701    346.62369   -17527.265   -12202.686            0   -18125.864   -24061.325    2613554.5  0.033274546    -4005.548 
    8000     6705          400   -17935.144    3.8862698   -17939.031      346.624 0.00027561845    346.62373    -17588.52   -12264.743            0   -18188.291   -24104.616    2613554.5  0.033274546   -3994.5349 
    9000     6705          400   -17975.631    3.8677531   -17979.498      346.624 0.00024815114    346.62376   -17629.007   -12305.467            0    -18229.38   -24115.757    2613554.5  0.033274546   -3976.5461 
   10000     6705          400   -18009.179    3.8504935    -18013.03      346.624 0.00022664909    346.62378   -17662.555   -12339.291            0   -18263.574   -24130.264    2613554.5  0.033274546   -3964.8724 
   11000     6705          400   -18044.269    3.8341559   -18048.103      346.624 0.00020939136     346.6238   -17697.645   -12374.642            0   -18299.257   -24158.967    2613554.5  0.033274546   -3960.9581 
   12000     6705          400   -18080.994    3.8185526   -18084.813      346.624 0.00019523762    346.62381    -17734.37    -12412.31            0   -18337.231   -24189.099    2613554.5  0.033274546   -3956.9159 
   13000     6705          400   -18119.612    3.8033498   -18123.415      346.624 0.00018345859    346.62382   -17772.988   -12451.952            0   -18377.177   -24214.038    2613554.5  0.033274546   -3948.5303 
   14000     6705          400    -18150.62    3.7881495   -18154.408      346.624 0.00017345123    346.62383   -17803.996   -12483.088            0   -18408.632   -24225.284    2613554.5  0.033274546   -3936.4153 
   15000     6705          400   -18178.659    3.7729678   -18182.432      346.624 0.00016480669    346.62384   -17832.035   -12510.908            0    -18436.78   -24239.725    2613554.5  0.033274546   -3928.0795 
   16000     6705          400   -18205.173    3.7576297   -18208.931      346.624 0.00015723069    346.62385   -17858.549   -12537.052            0   -18463.251   -24257.021    2613554.5  0.033274546   -3922.4288 
   17000     6705          400   -18230.704    3.7418072   -18234.446      346.624 0.00015060738    346.62385    -17884.08   -12562.117            0   -18488.641   -24264.261    2613554.5  0.033274546   -3911.2159 
   18000     6705          400   -18252.252    3.7256133   -18255.978      346.624 0.00014469372    346.62386   -17905.628    -12583.32            0   -18510.172   -24261.596    2613554.5  0.033274546   -3896.3728 
   19000     6705          400   -18271.988    3.7084769   -18275.696      346.624 0.00013938979    346.62387   -17925.364    -12602.76            0   -18529.933   -24258.181    2613554.5  0.033274546   -3882.1804 
   20000     6705          400   -18290.208    3.6906347   -18293.898      346.624 0.00013460872    346.62387   -17943.584   -12620.633            0   -18548.114   -24254.924    2613554.5  0.033274546    -3869.015 
   21000     6705          400   -18307.148    3.6719775    -18310.82      346.624 0.00013026815    346.62387   -17960.524    -12637.26            0   -18565.026   -24250.949    2613554.5  0.033274546   -3856.1932 
   22000     6705          400   -18323.318    3.6525126   -18326.971      346.624 0.00012630492    346.62388   -17976.694   -12653.179            0    -18581.21   -24246.509    2613554.5  0.033274546   -3843.5587 
   23000     6705          400   -18339.222    3.6321017   -18342.854      346.624 0.00012267176    346.62388   -17992.598   -12668.986            0   -18597.274   -24246.866    2613554.5  0.033274546   -3834.0278 
   24000     6705          400   -18353.552     3.612021   -18357.164      346.624 0.00011931624    346.62389   -18006.928   -12683.278            0   -18611.796   -24241.157    2613554.5  0.033274546   -3821.7441 
   25000     6705          400   -18366.641    3.5935419   -18370.234      346.624 0.00011622683    346.62389   -18020.017   -12696.209            0   -18624.937   -24228.951    2613554.5  0.033274546   -3806.2374 
   26000     6705          400   -18378.116    3.5809916   -18381.697      346.624 0.0001133554    346.62389   -18031.492   -12707.487            0   -18636.403   -24217.412    2613554.5  0.033274546   -3792.1291 
   27000     6705          400   -18388.198     3.581878    -18391.78      346.624 0.00011068987    346.62389   -18041.574   -12717.372            0   -18646.462   -24207.585    2613554.5  0.033274546   -3779.9241 
   28000     6705          400   -18397.103    3.6137703   -18400.716      346.624 0.00010819847     346.6239   -18050.479   -12726.098            0   -18655.354   -24200.096    2613554.5  0.033274546   -3769.8745 
   29000     6705          400   -18405.099    3.7131042   -18408.812      346.624 0.00010590328     346.6239   -18058.475   -12733.945            0   -18663.364    -24193.11    2613554.5  0.033274546   -3760.6902 
   30000     6705          400   -18412.182     3.959471   -18416.142      346.624 0.00010399201     346.6239   -18065.558   -12740.862            0   -18670.443   -24183.597    2613554.5  0.033274546   -3750.5162 
   31000     6705          400   -18418.155    4.5180519   -18422.673      346.624 0.00010350944     346.6239   -18071.531   -12746.698            0   -18676.439   -24172.217    2613554.5  0.033274546   -3739.8786 
   32000     6705          400   -18422.551    5.6959506   -18428.247      346.624 0.00010964598     346.6239   -18075.927   -12750.973            0   -18680.874   -24153.255    2613554.5  0.033274546   -3725.5594 
   33000     6705          400   -18424.593    7.8983703   -18432.492      346.624 0.00013845587    346.62387   -18077.969    -12752.89            0   -18682.945   -24124.332    2613554.5  0.033274546   -3706.5767 
   34000     6705          400   -18423.986     11.24212   -18435.228      346.624 0.00020295862     346.6238   -18077.362   -12752.179            0   -18682.381   -24085.219    2613554.5  0.033274546   -3682.9721 
   35000     6705          400   -18421.652    15.159709   -18436.812      346.624 0.00027757724    346.62373   -18075.028   -12749.765            0   -18680.106   -24039.745    2613554.5  0.033274546   -3656.5256 
   36000     6705          400   -18418.592    18.977185   -18437.569      346.624 0.00034936787    346.62366   -18071.968   -12746.621            0   -18677.088    -23993.31    2613554.5  0.033274546   -3629.9361 
   37000     6705          400    -18415.05    22.652174   -18437.702      346.624 0.00045551692    346.62355   -18068.426   -12743.062            0    -18673.64    -23948.94    2613554.5  0.033274546   -3604.9075 
   38000     6705          400   -18412.714    25.920034   -18438.634      346.624 0.0006230786    346.62338    -18066.09   -12740.751            0   -18671.426   -23912.689    2613554.5  0.033274546   -3584.1163 
   39000     6705          400   -18413.406    27.931426   -18441.338      346.624 0.0008011177     346.6232   -18066.782   -12741.434            0    -18672.19   -23891.127    2613554.5  0.033274546   -3570.4743 
   40000     6705          400   -18419.382    28.629305   -18448.011      346.624 0.00092208823    346.62308   -18072.758   -12747.382            0   -18678.206   -23897.918    2613554.5  0.033274546   -3570.9742 
   41000     6705          400   -18423.148    30.132761   -18453.281      346.624 0.0010099842    346.62299   -18076.524   -12751.377            0   -18682.267   -23880.831    2613554.5  0.033274546   -3558.1903 
   42000     6705          400   -18423.281     32.41148   -18455.693      346.624 0.0010720088    346.62293   -18076.657   -12751.505            0   -18682.463   -23856.786    2613554.5  0.033274546   -3543.3685 
   43000     6705          400   -18423.305    34.442777   -18457.748      346.624 0.0010711686    346.62293   -18076.681   -12751.518            0   -18682.548    -23833.91    2613554.5  0.033274546   -3529.3306 
   44000     6705          400   -18421.446    36.579265   -18458.026      346.624 0.0010358082    346.62297   -18074.822   -12749.665            0   -18680.777    -23805.59    2613554.5  0.033274546   -3513.1091 
   45000     6705          400   -18416.534    39.304927   -18455.839      346.624 0.0010286487    346.62298    -18069.91   -12744.702            0   -18675.905   -23764.486    2613554.5  0.033274546   -3490.9226 
   46000     6705          400   -18409.318    42.620568   -18451.939      346.624 0.0010933116    346.62291   -18062.694    -12737.53            0   -18668.828   -23716.423    2613554.5  0.033274546   -3465.8819 
   47000     6705          400   -18403.478    46.200343   -18449.679      346.624 0.0012275553    346.62278   -18056.854   -12731.554            0   -18662.953   -23670.125    2613554.5  0.033274546     -3441.08 
   48000     6705          400   -18397.564    50.050069   -18447.614      346.624 0.0013842669    346.62262    -18050.94    -12725.83            0   -18657.335   -23634.112    2613554.5  0.033274546    -3422.629 
   49000     6705          400   -18393.509      54.0151   -18447.524      346.624  0.001434212    346.62257   -18046.885   -12722.003            0    -18653.61   -23595.885    2613554.5  0.033274546   -3401.6808 
   50000     6705          400   -18386.775    59.395921   -18446.171      346.624 0.0014155705    346.62259   -18040.151   -12715.369            0   -18647.068    -23540.35    2613554.5  0.033274546   -3371.7641 
   51000     6705          400   -18374.174    66.863338   -18441.038      346.624 0.0014561333    346.62255    -18027.55   -12702.859            0   -18634.637   -23461.492    2613554.5  0.033274546   -3331.1469 
   52000     6705          400   -18357.807    76.084555   -18433.891      346.624 0.0014313247    346.62257   -18011.183   -12686.575            0   -18618.418   -23367.025    2613554.5  0.033274546     -3283.27 
   53000     6705          400   -18337.578    87.131203   -18424.709      346.624 0.0013542014    346.62265   -17990.954   -12666.529            0   -18598.421   -23250.796    2613554.5  0.033274546   -3224.4193 
   54000     6705          400   -18314.095    99.535002    -18413.63      346.624 0.0014687159    346.62254   -17967.471   -12643.374            0   -18575.289   -23114.425    2613554.5  0.033274546   -3155.2162 
   55000     6705          400   -18285.248    114.12861   -18399.377      346.624 0.0017222221    346.62228   -17938.624   -12615.091            0   -18546.988   -22959.843    2613554.5  0.033274546   -3078.1368 
   56000     6705          400   -18255.867    129.26456   -18385.131      346.624 0.0016795611    346.62233   -17909.243    -12585.84            0   -18517.694   -22802.683    2613554.5  0.033274546   -2999.8055 
   57000     6705          400   -18233.467    141.31577   -18374.783      346.624 0.0016817015    346.62232   -17886.843   -12563.628            0   -18495.417   -22679.643    2613554.5  0.033274546   -2938.1104 
   58000     6705          400   -18212.966    151.53626   -18364.502      346.624 0.0018740845    346.62213   -17866.342   -12543.126            0   -18474.857   -22569.902    2613554.5  0.033274546   -2883.4041 
   59000     6705          400   -18190.989    162.01343   -18353.002      346.624 0.0021968204    346.62181   -17844.365   -12521.233            0   -18452.891   -22463.205    2613554.5  0.033274546   -2831.4689 
   60000     6705          400   -18170.064    173.69645    -18343.76      346.624 0.0025102498    346.62149    -17823.44   -12500.418            0   -18431.994   -22348.664    2613554.5  0.033274546   -2774.0796 
   61000     6705          400   -18149.388    189.15692   -18338.545      346.624 0.0026125262    346.62139   -17802.764   -12479.811            0   -18411.363   -22205.657    2613554.5  0.033274546   -2699.0873 
   62000     6705          400   -18116.093    208.07775   -18324.171      346.624 0.0021866016    346.62182   -17769.469   -12446.866            0   -18378.402   -22018.121    2613554.5  0.033274546   -2604.5338 
   63000     6705          400   -18073.612    229.90709   -18303.519      346.624 0.0024282695    346.62158   -17726.988   -12404.608            0    -18336.14   -21777.972    2613554.5  0.033274546   -2483.3583 
   64000     6705          400   -18017.697    255.99171   -18273.689      346.624 0.0031560313    346.62085   -17671.073   -12349.276            0   -18280.784   -21500.351    2613554.5  0.033274546   -2347.4462 
   65000     6705          400   -17966.048    283.70491   -18249.752      346.624 0.0040251327    346.61998   -17619.424    -12298.97            0   -18230.402   -21221.903    2613554.5  0.033274546   -2208.4133 
   66000     6705          400   -17901.456    315.57812   -18217.034      346.624 0.0049610256    346.61904   -17554.832   -12235.938            0    -18167.27   -20882.411    2613554.5  0.033274546    -2039.892 
   67000     6705          400   -17831.191    348.95955   -18180.151      346.624 0.0057911954    346.61821   -17484.567   -12167.437            0   -18098.662   -20522.097    2613554.5  0.033274546   -1862.0841 
   68000     6705          400   -17765.529    378.44637   -18143.975      346.624 0.0063189767    346.61769   -17418.905   -12103.473            0   -18034.539   -20214.669    2613554.5  0.033274546   -1713.8758 
   69000     6705          400   -17720.164    402.16253   -18122.327      346.624 0.0067812727    346.61722    -17373.54   -12058.187            0   -17989.134   -19991.251    2613554.5  0.033274546   -1604.7245 
   70000     6705          400   -17672.553    425.85636    -18098.41      346.624 0.0075607127    346.61644   -17325.929   -12011.505            0   -17942.364   -19751.141    2613554.5  0.033274546   -1486.7174 
   71000     6705          400   -17610.452    453.67027   -18064.122      346.624 0.0080090735      346.616   -17263.828   -11950.962            0   -17881.622   -19474.979    2613554.5  0.033274546   -1355.4926 
   72000     6705          400   -17551.149     480.5843   -18031.734      346.624 0.0076682006    346.61634   -17204.525   -11893.348            0   -17823.737   -19217.145    2613554.5  0.033274546    -1233.788 
   73000     6705          400   -17489.755    510.43346   -18000.188      346.624 0.0076476644    346.61636   -17143.131   -11833.712            0   -17763.763   -18910.781    2613554.5  0.033274546   -1083.6155 
   74000     6705          400   -17428.043    540.80029   -17968.843      346.624 0.0084445219    346.61556   -17081.419   -11773.264            0   -17702.891   -18566.846    2613554.5  0.033274546   -910.60518 
   75000     6705          400   -17354.786    573.20344    -17927.99      346.624 0.0098066731     346.6142   -17008.162   -11701.338            0   -17630.513   -18195.436    2613554.5  0.033274546   -727.82931 
   76000     6705          400   -17278.679    606.75971   -17885.439      346.624  0.011711073    346.61229   -16932.055   -11626.425            0   -17555.111    -17809.22    2613554.5  0.033274546   -537.72454 
   77000     6705          400   -17201.377    640.83357   -17842.211      346.624  0.013222763    346.61078   -16854.753   -11550.831            0   -17478.971   -17403.833    2613554.5  0.033274546   -336.60005 
   78000     6705          400   -17126.251    675.11182   -17801.363      346.624  0.013703653     346.6103   -16779.627   -11477.061            0   -17404.688   -17007.107    2613554.5  0.033274546   -139.45146 
   79000     6705          400   -17052.148     708.2141   -17760.362      346.624  0.013538167    346.61047   -16705.524   -11404.569            0   -17331.716   -16662.091    2613554.5  0.033274546    26.625567 
   80000     6705          400   -16965.951    744.30929    -17710.26      346.624  0.014198504    346.60981   -16619.327   -11321.668            0    -17248.31   -16276.705    2613554.5  0.033274546    210.03639 
   81000     6705          400   -16880.609    782.96479   -17663.573      346.624  0.014940099    346.60906   -16533.985   -11239.354            0    -17165.29   -15854.636    2613554.5  0.033274546    416.45838 
   82000     6705          400   -16802.332    821.41586   -17623.748      346.624  0.015026382    346.60898   -16455.708   -11161.565            0   -17086.813   -15445.298    2613554.5  0.033274546    619.40799 
   83000     6705          400    -16707.65     861.3266   -17568.977      346.624  0.013833468    346.61017   -16361.026   -11070.037            0   -16994.754   -14996.463    2613554.5  0.033274546    836.51286 
   84000     6705          400   -16607.081    902.09545   -17509.177      346.624  0.012369532    346.61164   -16260.457   -10973.106            0   -16897.283   -14520.987    2613554.5  0.033274546    1066.3405 
   85000     6705          400   -16501.377    944.46995   -17445.847      346.624  0.013322331    346.61068   -16154.753   -10870.114            0   -16793.844   -14043.727    2613554.5  0.033274546    1294.1137 
   86000     6705          400    -16388.58    989.21619   -17377.796      346.624  0.014525296    346.60948   -16041.956   -10759.245            0   -16682.693   -13532.542    2613554.5  0.033274546    1538.3359 
   87000     6705          400   -16272.818    1031.8608   -17304.679      346.624   0.01526259    346.60874   -15926.194   -10647.889            0   -16570.913    -13022.83    2613554.5  0.033274546    1779.8374 
   88000     6705          400   -16143.323    1079.5402   -17222.863      346.624  0.016473362    346.60753   -15796.699   -10523.052            0   -16445.619   -12442.887    2613554.5  0.033274546    2055.9733 
   89000     6705          400   -16010.208    1129.2399   -17139.448      346.624  0.018190934    346.60581   -15663.584   -10394.174            0   -16316.232   -11846.192    2613554.5  0.033274546    2340.1602 
   90000     6705          400   -15886.972    1175.6307   -17062.603      346.624  0.022302165     346.6017   -15540.348   -10272.937            0   -16194.509   -11262.118    2613554.5  0.033274546    2622.6659 
   91000     6705          400    -15761.03    1223.8155   -16984.846      346.624  0.023801642     346.6002   -15414.406   -10149.175            0   -16070.078   -10691.443    2613554.5  0.033274546    2895.2983 
   92000     6705          400   -15648.284    1265.6448   -16913.929      346.624  0.025524937    346.59848    -15301.66   -10039.195            0   -15959.284   -10197.217    2613554.5  0.033274546    3129.1552 
   93000     6705          400   -15537.862    1307.3581   -16845.221      346.624  0.029281241    346.59472   -15191.238   -9931.6827            0   -15850.973   -9728.4972    2613554.5  0.033274546    3348.8017 
   94000     6705          400   -15435.054    1346.4831   -16781.537      346.624  0.030086502    346.59392    -15088.43    -9833.047            0   -15751.568   -9304.1751    2613554.5  0.033274546     3545.898 
   95000     6705          400   -15337.776    1385.2605   -16723.036      346.624  0.031852197    346.59215   -14991.152   -9739.5395            0   -15657.491   -8863.9004    2613554.5  0.033274546    3756.1635 
   96000     6705          400   -15227.175    1422.0285   -16649.204      346.624  0.030797914    346.59321   -14880.551   -9631.3334            0   -15549.006   -8394.4362    2613554.5  0.033274546    3976.1564 
   97000     6705          400    -15118.93    1458.3318   -16577.262      346.624  0.028947113    346.59506   -14772.306   -9527.4957            0    -15444.69   -7938.8227    2613554.5  0.033274546    4189.1019 
   98000     6705          400   -15006.527    1498.3904   -16504.917      346.624  0.028770475    346.59523   -14659.903   -9420.7707            0   -15337.194   -7450.0453    2613554.5  0.033274546     4419.829 
   99000     6705          400   -14875.995     1547.673   -16423.668      346.624   0.03211806    346.59189   -14529.371   -9295.9661            0     -15211.4   -6862.6688    2613554.5  0.033274546    4699.8868 
  100000     6705          400   -14736.371    1603.0125   -16339.383      346.624  0.034845716    346.58916   -14389.747   -9162.3437            0   -15076.862   -6229.4297    2613554.5  0.033274546    5002.4856 
  101000     6705          400   -14583.666    1658.8499   -16242.516      346.624  0.032777938    346.59123   -14237.042   -9016.3244            0   -14930.073      -5556.2    2613554.5  0.033274546    5321.5809 
  102000     6705          400   -14427.993    1714.0935   -16142.087      346.624  0.030840524    346.59316   -14081.369   -8867.3055            0   -14780.429   -4874.3551    2613554.5  0.033274546    5644.1379 
  103000     6705          400   -14268.722    1771.8935   -16040.615      346.624  0.032272141    346.59173   -13922.098   -8715.1057            0   -14627.673   -4164.2902    2613554.5  0.033274546    5981.7885 
  104000     6705          400   -14133.509     1821.067   -15954.576      346.624  0.034502797     346.5895   -13786.885   -8586.8059            0   -14498.639   -3577.9696    2613554.5  0.033274546    6258.3291 
  105000     6705          400   -13989.068    1870.0814    -15859.15      346.624  0.039911411    346.58409   -13642.444   -8451.2748            0   -14362.581   -2985.0948    2613554.5  0.033274546    6533.2309 
  106000     6705          400   -13841.748    1924.0322    -15765.78      346.624  0.048268735    346.57574   -13495.124   -8312.1885            0   -14222.992   -2346.0896    2613554.5  0.033274546    6834.6467 
  107000     6705          400   -13691.039    1978.3052   -15669.344      346.624  0.052832577    346.57117   -13344.415   -8170.5208            0   -14080.689   -1740.4576    2613554.5  0.033274546    7113.5262 
  108000     6705          400   -13531.548    2034.7024    -15566.25      346.624  0.059245783    346.56476   -13184.924   -8019.1502            0   -13928.697   -1107.5663    2613554.5  0.033274546    7403.7325 
  109000     6705          400   -13373.785    2092.2249    -15466.01      346.624  0.068350978    346.55565   -13027.161   -7871.3618            0   -13780.067   -477.86857    2613554.5  0.033274546    7693.0407 
  110000     6705          400   -13209.989     2153.117   -15363.106      346.624  0.070142993    346.55386   -12863.365   -7716.0349            0    -13624.06    224.01979    2613554.5  0.033274546    8022.9053 
  111000     6705          400   -13038.732    2215.0493   -15253.781      346.624  0.068478917    346.55553   -12692.108   -7554.5512            0   -13461.701    948.22724    2613554.5  0.033274546    8361.8781 
  112000     6705          400   -12870.881    2274.2851   -15145.166      346.624  0.067594802    346.55641   -12524.257     -7399.23            0   -13305.142    1622.0399    2613554.5  0.033274546    8672.0459 
  113000     6705          400   -12711.115    2331.5424   -15042.657      346.624   0.06587775    346.55813   -12364.491   -7250.0735            0   -13154.694    2252.6631    2613554.5  0.033274546    8960.6934 
  114000     6705          400   -12560.849    2378.9751   -14939.824      346.624  0.063964344    346.56004   -12214.225    -7107.051            0   -13010.562     2836.086    2613554.5  0.033274546    9226.2302 
  115000     6705          400   -12396.027    2431.9701   -14827.997      346.624  0.068437023    346.55557   -12049.403   -6947.8773            0     -12850.3    3504.8649    2613554.5  0.033274546    9535.1684 
  116000     6705          400   -12187.875     2498.489   -14686.364      346.624  0.072418219    346.55159   -11841.251   -6746.6038            0   -12648.248    4332.5442    2613554.5  0.033274546    9914.9551 
  117000     6705          400   -12006.954    2545.0391   -14551.993      346.624  0.074421444    346.54958    -11660.33   -6571.2144            0    -12471.86    5022.1723    2613554.5  0.033274546    10226.805 
  118000     6705          400   -11814.807    2599.2124   -14414.019      346.624  0.075755057    346.54825   -11468.183   -6389.6774            0   -12288.792    5780.5113    2613554.5  0.033274546    10573.896 
  119000     6705          400   -11643.035    2656.0691   -14299.104      346.624   0.07262066    346.55138   -11296.411   -6227.5295            0   -12124.722    6510.4633    2613554.5  0.033274546    10916.075 
  120000     6705          400   -11481.729    2703.6926   -14185.422      346.624  0.070895157    346.55311   -11135.105   -6074.1623            0     -11969.6    7139.9303    2613554.5  0.033274546    11203.069 
  121000     6705          400   -11285.434    2755.3375   -14040.771      346.624  0.070592225    346.55341    -10938.81   -5887.5248            0   -11781.164     7859.906    2613554.5  0.033274546    11524.099 
  122000     6705          400   -11062.015    2821.6955   -13883.711      346.624  0.079181186    346.54482   -10715.391   -5674.2375            0   -11566.063    8734.0323    2613554.5  0.033274546        11923 
  123000     6705          400    -10834.07    2885.6499    -13719.72      346.624  0.088103437     346.5359   -10487.446   -5461.4517            0   -11351.671    9587.5628    2613554.5  0.033274546      12306.5 
  124000     6705          400   -10626.029    2944.5635   -13570.593      346.624  0.090696668    346.53331   -10279.405   -5270.4744            0   -11159.355    10380.603    2613554.5  0.033274546    12665.119 
  125000     6705          400    -10443.93    2996.9715   -13440.902      346.624  0.083097966    346.54091   -10097.306   -5102.8239            0   -10990.667    11079.964    2613554.5  0.033274546    12982.215 
  126000     6705          400   -10268.937    3038.4736    -13307.41      346.624  0.075934042    346.54807   -9922.3129   -4940.4955            0   -10827.345    11690.897    2613554.5  0.033274546    13249.457 
  127000     6705          400    -10062.43    3089.7592   -13152.189      346.624  0.075116742    346.54889   -9715.8057   -4742.0654            0   -10627.574    12472.727    2613554.5  0.033274546    13602.144 
  128000     6705          400   -9838.6253    3149.6519   -12988.277      346.624  0.078225556    346.54578   -9492.0013   -4524.7621            0   -10408.829      13289.4    2613554.5  0.033274546    13965.588 
  129000     6705          400   -9618.1576    3215.5094   -12833.667      346.624  0.080883504    346.54312   -9271.5336   -4314.0863            0   -10196.078    14062.081    2613554.5  0.033274546    14304.109 
  130000     6705          400    -9373.904    3294.2139   -12668.118      346.624  0.084084318    346.53992     -9027.28   -4085.1087            0   -9964.6987    14989.859    2613554.5  0.033274546    14723.128 
  131000     6705          400   -9136.4444    3366.1727   -12502.617      346.624  0.086491356    346.53751   -8789.8204   -3864.5747            0   -9741.9541    15847.855    2613554.5  0.033274546    15103.532 
  132000     6705          400   -8912.7785    3426.9283   -12339.707      346.624  0.083703522     346.5403   -8566.1545   -3653.2621            0   -9528.1092    16633.862    2613554.5  0.033274546    15448.262 
  133000     6705          400   -8668.1783    3492.2977   -12160.476      346.624   0.08343489    346.54057   -8321.5543   -3424.3287            0   -9296.9187     17506.88    2613554.5  0.033274546    15833.498 
  134000     6705          400   -8440.3844    3547.4679   -11987.852      346.624   0.08450916     346.5395   -8093.7604   -3211.7167            0   -9082.5813    18313.843    2613554.5  0.033274546    16188.544 
  135000     6705          400   -8202.7702    3597.7142   -11800.484      346.624  0.090486653    346.53352   -7856.1462   -2990.2712            0   -8859.4122     19100.66    2613554.5  0.033274546     16525.22 
  136000     6705          400   -8001.9434    3639.3583   -11641.302      346.624   0.10197513    346.52203   -7655.3194   -2802.2533            0    -8670.176    19749.953    2613554.5  0.033274546    16800.141 
  137000     6705          400   -7765.1952    3691.9967   -11457.192      346.624  0.099198701    346.52481   -7418.5712   -2583.2889            0   -8449.9454    20561.928    2613554.5  0.033274546     17152.77 
  138000     6705          400   -7521.0147    3750.5081   -11271.523      346.624   0.10073661    346.52327   -7174.3907   -2355.8306            0   -8221.1043    21413.422    2613554.5  0.033274546    17525.069 
  139000     6705          400   -7294.7628    3793.3202   -11088.083      346.624    0.1189841    346.50502   -6948.1388   -2148.6733            0   -8012.0906    22146.043    2613554.5  0.033274546    17835.486 
  140000     6705          400   -7081.9663    3834.7988   -10916.765      346.624   0.11344526    346.51056   -6735.3423   -1946.5363            0   -7807.7828    22890.288    2613554.5  0.033274546    18161.278 
  141000     6705          400   -6838.7852    3891.2208   -10730.006      346.624   0.11451117    346.50949   -6492.1612   -1716.2888            0   -7575.0659    23741.483    2613554.5  0.033274546    18534.006 
  142000     6705          400   -6552.0279    3960.7826    -10512.81      346.624   0.11133385    346.51267   -6205.4039   -1447.0625            0   -7303.7174     24769.46    2613554.5  0.033274546    18988.393 
  143000     6705          400   -6301.8583    4011.6606   -10313.519      346.624   0.11590409     346.5081   -5955.2343   -1210.2016            0   -7064.9624    25574.292    2613554.5  0.033274546    19328.415 
  144000     6705          400   -6064.4887    4067.7416    -10132.23      346.624   0.11396836    346.51004   -5717.8647   -989.76102            0   -6841.5711    26369.165    2613554.5  0.033274546    19670.179 
  145000     6705          400     -5832.03    4120.1764   -9952.2064      346.624   0.10799411    346.51601    -5485.406   -772.94356            0   -6621.6395    27177.024    2613554.5  0.033274546    20022.915 
  146000     6705          400   -5559.9726    4180.8508   -9740.8233      346.624   0.10951715    346.51449   -5213.3485   -522.96067            0   -6368.5838    28069.721    2613554.5  0.033274546    20403.382 
  147000     6705          400   -5301.5311     4233.492   -9535.0231      346.624   0.11630938     346.5077   -4954.9071   -278.97044            0    -6121.536    28917.269    2613554.5  0.033274546     20764.52 
  148000     6705          400   -5035.2561    4288.2956   -9323.5517      346.624   0.12573653    346.49827   -4688.6321   -29.103532            0   -5868.7161    29824.634    2613554.5  0.033274546    21157.525 
  149000     6705          400   -4740.1967     4362.725   -9102.9216      346.624   0.14156587    346.48244   -4393.5727    245.55837            0   -5591.5831     30863.21    2613554.5  0.033274546     21613.32 
  150000     6705          400   -4478.5428    4426.3914   -8904.9342      346.624   0.13958136    346.48442   -4131.9188    488.00318            0   -5347.5088    31771.829    2613554.5  0.033274546    22009.926 
  151000     6705          400   -4203.5781    4487.9816   -8691.5597      346.624   0.14447677    346.47953   -3856.9541    741.04162            0    -5093.441    32694.831    2613554.5  0.033274546     22407.19 
  152000     6705          400   -3950.3235    4553.8633   -8504.1869      346.624   0.15139532    346.47261   -3603.6995    972.45488            0   -4861.1006    33563.864    2613554.5  0.033274546    22784.678 
  153000     6705          400   -3745.8068    4602.8241   -8348.6309      346.624   0.14862312    346.47538   -3399.1828    1159.2346            0   -4673.2768     34239.38    2613554.5  0.033274546    23073.412 
  154000     6705          400   -3526.9192    4644.0647   -8170.9838      346.624   0.13949982    346.48451   -3180.2952    1359.1589            0   -4472.4566    34938.403    2613554.5  0.033274546    23367.748 
  155000     6705          400   -3308.5798    4688.4029   -7996.9827      346.624    0.1325886    346.49142   -2961.9558    1563.4507            0   -4267.3385    35655.526    2613554.5  0.033274546    23673.515 
  156000     6705          400   -3069.2927    4740.7898   -7810.0825      346.624   0.14404231    346.47996   -2722.6687    1782.5072            0   -4047.2611    36457.376    2613554.5  0.033274546    24018.381 
  157000     6705          400    -2821.295    4805.8785   -7627.1736      346.624   0.15826897    346.46574    -2474.671    2009.4832            0   -3819.9801    37308.114    2613554.5  0.033274546    24387.877 
  158000     6705          400    -2579.702    4879.3014   -7459.0034      346.624    0.1749224    346.44908    -2233.078    2223.9375            0   -3605.2227    38167.314    2613554.5  0.033274546    24766.486 
  159000     6705          400   -2360.5792    4948.1143   -7308.6935      346.624   0.18547618    346.43853   -2013.9552    2415.2107            0   -3413.5122    38940.992    2613554.5  0.033274546    25106.442 
  160000     6705          400   -2151.6153    5008.7097   -7160.3249      346.624   0.18506419    346.43894   -1804.9913    2597.6564            0     -3231.34    39623.717    2613554.5  0.033274546     25396.87 
  161000     6705          400   -1970.1125    5065.9367   -7036.0492      346.624   0.18903385    346.43497   -1623.4885    2751.3617            0   -3077.9538    40198.038    2613554.5  0.033274546    25637.678 
  162000     6705          400   -1799.1313    5120.9839   -6920.1151      346.624   0.19083211    346.43317   -1452.5073    2898.8744            0   -2930.9303    40745.033    2613554.5  0.033274546    25868.184 
  163000     6705          400   -1655.6809    5165.1397   -6820.8206      346.624   0.17960684     346.4444   -1309.0569    3017.0259            0   -2812.5952    41167.201    2613554.5  0.033274546    26039.045 
  164000     6705          400   -1509.2702    5215.2097   -6724.4799      346.624   0.16217295    346.46183   -1162.6462    3137.7109            0   -2690.7758    41620.744    2613554.5  0.033274546    26227.325 
  165000     6705          400   -1337.7892    5270.1336   -6607.9228      346.624   0.16004418    346.46396   -991.16517    3284.2287            0   -2543.3773    42153.087    2613554.5  0.033274546    26448.543 
  166000     6705          400   -1171.5757    5323.8249   -6495.4006      346.624   0.15812698    346.46588   -824.95171    3425.3809            0   -2402.0846     42655.06    2613554.5  0.033274546    26654.372 
  167000     6705          400   -1017.1236    5371.7592   -6388.8828      346.624   0.15780181     346.4662   -670.49956    3554.4085            0   -2272.9828    43091.361    2613554.5  0.033274546    26827.152 
  168000     6705          400   -895.03821    5413.2699   -6308.3081      346.624   0.15849838    346.46551    -548.4142    3656.7649            0   -2170.8789    43403.817    2613554.5  0.033274546    26943.855 
  169000     6705          400   -779.61908    5452.6011   -6232.2202      346.624    0.1504706    346.47353   -432.99508     3750.487            0   -2077.3273    43701.372    2613554.5  0.033274546    27055.509 
  170000     6705          400   -701.32251     5469.966   -6171.2885      346.624   0.14411045    346.47989   -354.69851    3811.1704            0   -2017.0312    43836.429    2613554.5  0.033274546    27090.305 
  171000     6705          400   -602.71397    5491.7561   -6094.4701      346.624   0.13337262    346.49063   -256.08997    3901.3775            0   -1927.2156      44074.8    2613554.5  0.033274546    27175.982 
  172000     6705          400    -482.0841    5524.3269    -6006.411      346.624   0.12903599    346.49497   -135.46009    4003.9372            0   -1824.8124    44418.031    2613554.5  0.033274546    27312.442 
  173000     6705          400   -362.08225    5560.2153   -5922.2976      346.624   0.12495398    346.49905   -15.458242    4107.4464            0   -1721.1506     44780.08    2613554.5  0.033274546    27460.824 
  174000     6705          400   -255.16861    5595.7534    -5850.922      346.624    0.1234013     346.5006    91.455398    4198.3539            0   -1629.9421    45103.186    2613554.5  0.033274546    27593.355 
  175000     6705          400   -157.42102    5623.2646   -5780.6856      346.624    0.1230855    346.50092    189.20298    4280.1548            0   -1547.7587    45349.004    2613554.5  0.033274546    27684.126 
  176000     6705          400   -67.754738    5655.3309   -5723.0856      346.624   0.12372438    346.50028    278.86927    4354.5488            0    -1473.103     45592.99    2613554.5  0.033274546    27778.728 
  177000     6705          400    22.548482    5690.1715    -5667.623      346.624   0.12923237    346.49477    369.17249    4427.2351            0   -1400.5481    45851.313    2613554.5  0.033274546    27881.729 
  178000     6705          400    98.195454    5721.0263   -5622.8308      346.624   0.13176417    346.49224    444.81946    4482.6821            0   -1345.1225    46048.518    2613554.5  0.033274546    27956.247 
  179000     6705          400    153.37791    5741.6718   -5588.2939      346.624   0.13062307    346.49338    500.00192    4519.3179            0   -1308.3019    46166.785    2613554.5  0.033274546     27994.92 
  180000     6705          400    207.00367     5761.493   -5554.4893      346.624    0.1268045     346.4972    553.62767    4554.9762            0   -1272.7062     46250.82    2613554.5  0.033274546    28013.561 
  181000     6705          400    267.89508    5781.9346   -5514.0396      346.624   0.12495271    346.49905    614.51909    4599.7749            0   -1228.4058    46351.642    2613554.5  0.033274546    28038.039 
  182000     6705          400    331.21993    5808.5983   -5477.3783      346.624   0.11970623     346.5043    677.84393    4648.2798            0   -1180.3829    46507.898    2613554.5  0.033274546    28095.009 
  183000     6705          400    369.69258    5825.4639   -5455.7713      346.624    0.1125639    346.51144    716.31658    4673.1455            0   -1155.4918    46555.412    2613554.5  0.033274546    28100.551 
  184000     6705          400    417.25132    5843.2376   -5425.9863      346.624   0.11316132    346.51084    763.87533    4709.5018            0   -1118.9418    46679.267    2613554.5  0.033274546    28147.323 
  185000     6705          400      470.076    5855.7584   -5385.6824      346.624   0.10844042    346.51556        816.7    4750.8019            0   -1077.4122    46786.856    2613554.5  0.033274546    28180.895 
  186000     6705          400    539.13059    5871.0937   -5331.9631      346.624   0.10571228    346.51829    885.75459     4806.164            0    -1021.776    46926.804    2613554.5  0.033274546    28224.354 
  187000     6705          400     611.9833    5889.7014   -5277.7181      346.624    0.1053183    346.51869    958.60731    4865.3831            0   -962.26624    47099.504    2613554.5  0.033274546    28285.563 
  188000     6705          400    686.01255    5910.5022   -5224.4896      346.624   0.10744082    346.51656    1032.6366    4926.1623            0   -901.10362    47273.137    2613554.5  0.033274546    28346.623 
  189000     6705          400    763.44033    5935.2703   -5171.8299      346.624   0.10721602    346.51679    1110.0643    4989.9993            0   -836.63778    47434.342    2613554.5  0.033274546     28397.98 
  190000     6705          400    832.90514    5954.9253   -5122.0202      346.624   0.10945403    346.51455    1179.5291    5048.6846            0    -777.3561    47590.155    2613554.5  0.033274546    28450.914 
  191000     6705          400    885.98885    5974.1763   -5088.1875      346.624   0.10923638    346.51477    1232.6129    5089.9163            0   -735.19371    47700.114    2613554.5  0.033274546     28485.78 
  192000     6705          400    936.74161    5995.6319   -5058.8903      346.624    0.1001802    346.52382    1283.3656    5128.1983            0   -695.94035    47791.594    2613554.5  0.033274546    28510.747 
  193000     6705          400    974.15399    6005.6305   -5031.4765      346.624  0.098275096    346.52573     1320.778    5152.5341            0   -671.05058    47811.896    2613554.5  0.033274546    28500.258 
  194000     6705          400    1031.3667    6026.1416   -4994.7749      346.624  0.096012437    346.52799    1377.9907    5198.7628            0   -624.64328    47936.535    2613554.5  0.033274546    28541.592 
  195000     6705          400    1099.4267    6049.5355   -4950.1088      346.624  0.096857225    346.52715    1446.0507    5254.5922            0   -568.45045    48129.773    2613554.5  0.033274546     28618.33 
  196000     6705          400    1165.1752    6075.7905   -4910.6152      346.624  0.097897227    346.52611    1511.7993    5307.7932            0   -515.01584    48325.514    2613554.5  0.033274546    28698.018 
  197000     6705          400    1235.8868    6105.3098    -4869.423      346.624  0.099174173    346.52483    1582.5108    5364.3356            0   -458.13317    48524.013    2613554.5  0.033274546    28776.355 
  198000     6705          400    1288.6417    6130.7296    -4842.088      346.624   0.09730031     346.5267    1635.2657    5403.4216            0   -418.58493    48654.459    2613554.5  0.033274546    28823.982 
  199000     6705          400    1332.3249     6152.356   -4820.0311      346.624  0.097150956    346.52685    1678.9489    5432.4612            0   -388.87036    48704.321    2613554.5  0.033274546     28827.77 
  200000     6705          400    1371.0293     6169.373   -4798.3437      346.624   0.09651177    346.52749    1717.6533    5456.9715            0   -364.22591    48736.873    2613554.5  0.033274546    28823.998 
  201000     6705          400    1430.1111    6192.8861   -4762.7749      346.624   0.09941229    346.52459    1776.7351    5501.5797            0   -319.38373    48849.631    2613554.5  0.033274546    28856.903 
  202000     6705          400    1485.7598    6212.8718   -4727.1121      346.624   0.10347707    346.52053    1832.3838    5541.6097            0   -279.26805    48938.027    2613554.5  0.033274546    28876.978 
  203000     6705          400    1545.5331    6232.2615   -4686.7284      346.624   0.10697309    346.51703    1892.1571     5584.149            0   -236.80637    48997.112    2613554.5  0.033274546    28876.556 
  204000     6705          400    1615.9631    6257.9193   -4641.9562      346.624   0.10992526    346.51408    1962.5871    5638.5903            0   -181.65868    49141.197    2613554.5  0.033274546    28921.708 
  205000     6705          400    1677.7426     6271.503   -4593.7603      346.624   0.11016586    346.51384    2024.3666    5683.6366            0   -135.79022    49245.198    2613554.5  0.033274546    28947.591 
  206000     6705          400    1757.0326    6293.4727   -4536.4401      346.624     0.103409     346.5206    2103.6566    5746.1755            0   -72.174743    49438.552    2613554.5  0.033274546    29017.515 
  207000     6705          400    1846.3875    6322.2261   -4475.8386      346.624    0.1008823    346.52312    2193.0115    5818.0658            0    1.0827613    49676.932    2613554.5  0.033274546    29108.871 
  208000     6705          400    1956.1058    6358.5752   -4402.4694      346.624   0.10171643    346.52229    2302.7299    5907.3966            0    91.740069    49982.906    2613554.5  0.033274546    29229.182 
  209000     6705          400    2066.2132    6392.7354   -4326.5222      346.624   0.10225398    346.52175    2412.8372     5995.139            0    180.95816    50273.363    2613554.5  0.033274546     29339.74 
  210000     6705          400    2162.7285     6418.926   -4256.1975      346.624   0.10225343    346.52175    2509.3525    6072.8334            0    259.43801    50486.648    2613554.5  0.033274546    29411.323 
  211000     6705          400    2267.5391    6450.7192   -4183.1801      346.624  0.098970675    346.52503    2614.1631    6162.0624            0    349.01291    50771.224    2613554.5  0.033274546    29521.524 
  212000     6705          400    2374.9215    6481.4073   -4106.4858      346.624  0.098749093    346.52526    2721.5455     6250.342            0      437.737     51039.92    2613554.5  0.033274546    29620.413 
  213000     6705          400    2509.6806    6521.5717   -4011.8911      346.624  0.097603365     346.5264    2856.3046    6364.2804            0    552.03222    51413.655    2613554.5  0.033274546    29766.912 
  214000     6705          400    2623.6418    6553.8878    -3930.246      346.624  0.095203892     346.5288    2970.2658    6461.1047            0    649.15211    51712.279    2613554.5  0.033274546    29880.115 
  215000     6705          400     2750.867    6585.0256   -3834.1586      346.624  0.095395734    346.52861     3097.491    6570.4082            0    759.50152    52041.491    2613554.5  0.033274546    30003.938 
  216000     6705          400    2901.0226    6605.7622   -3704.7396      346.624  0.095553512    346.52845    3247.6466    6709.7081            0    899.33729    52391.709    2613554.5  0.033274546    30126.582 
  217000     6705          400    3105.0379    6647.2685   -3542.2306      346.624  0.097626487    346.52638    3451.6619    6896.0802            0    1085.4775    52979.234    2613554.5  0.033274546    30361.683 
  218000     6705          400    3288.5883    6690.9097   -3402.3214      346.624   0.10220415     346.5218    3635.2123    7059.7182            0    1249.0048    53507.301    2613554.5  0.033274546    30572.881 
  219000     6705          400    3491.1745    6745.6096   -3254.4351      346.624   0.10576403    346.51824    3837.7985    7238.2947            0    1428.3782    54125.102    2613554.5  0.033274546    30827.418 
  220000     6705          400    3687.1443    6790.7376   -3103.5933      346.624   0.11341517    346.51059    4033.7683    7410.2986            0     1601.637    54679.253    2613554.5  0.033274546    31046.992 
  221000     6705          400    3872.5567    6829.9612   -2957.4045      346.624   0.11175237    346.51225    4219.1807    7574.6889            0    1767.9217    55240.481    2613554.5  0.033274546    31277.377 
  222000     6705          400    4090.2094    6872.2379   -2782.0285      346.624   0.11044649    346.51356    4436.8334    7770.6884            0    1965.2634    55859.905    2613554.5  0.033274546    31523.673 
  223000     6705          400     4305.046     6908.514    -2603.468      346.624   0.11072411    346.51328      4651.67    7968.7024            0    2163.5828    56434.905    2613554.5  0.033274546    31744.462 
  224000     6705          400    4479.7177    6930.7287   -2451.0111      346.624   0.11124356    346.51276    4826.3417    8131.0777            0     2327.018    56899.538    2613554.5  0.033274546    31922.216 
  225000     6705          400    4709.7451    6976.9707   -2267.2256      346.624   0.10639077    346.51761    5056.3691    8342.1809            0    2539.7465    57536.575    2613554.5  0.033274546    32171.724 
  226000     6705          400    5001.2757    7035.1968   -2033.9212      346.624    0.1041973    346.51981    5347.8997     8611.218            0    2810.7409    58419.401    2613554.5  0.033274546    32534.203 
  227000     6705          400    5288.9807    7085.0674   -1796.0867      346.624   0.10602742    346.51798    5635.6047    8881.7826            0    3083.3215    59285.886    2613554.5  0.033274546    32889.011 
  228000     6705          400    5554.5758     7135.866   -1581.2903      346.624   0.10327041    346.52073    5901.1998    9124.4191            0      3328.88    60043.158    2613554.5  0.033274546    33190.421 
  229000     6705          400    5791.2174     7171.582   -1380.3646      346.624   0.10866103    346.51534    6137.8414    9341.5594            0    3549.9528    60694.976    2613554.5  0.033274546    33444.935 
  230000     6705          400    6018.3113    7212.7193    -1194.408      346.624   0.12207973    346.50193    6364.9353    9551.2247            0    3762.6505    61327.257    2613554.5  0.033274546    33693.325 
  231000     6705          400    6210.4773    7234.2111   -1023.7338      346.624   0.12580138     346.4982    6557.1013    9730.3354            0     3946.078    61850.927    2613554.5  0.033274546    33896.545 
  232000     6705          400    6464.1652    7261.8318   -797.66655      346.624   0.11144156    346.51256    6810.7892    9966.6659            0    4187.1493    62605.773    2613554.5  0.033274546    34203.768 
  233000     6705          400    6791.8354    7328.3254   -536.48993      346.624   0.11000941      346.514    7138.4595    10274.966            0    4499.3706    63679.235    2613554.5  0.033274546    34660.958 
  234000     6705          400    7095.4933    7390.1583   -294.66494      346.624   0.11698127    346.50702    7442.1173     10561.51            0    4790.0182    64679.086    2613554.5  0.033274546    35087.743 
  235000     6705          400    7367.6725    7439.4225   -71.749972      346.624   0.11567956    346.50833    7714.2965     10816.78            0    5049.2404    65502.971    2613554.5  0.033274546    35425.953 
  236000     6705          400    7682.3291    7497.6193    184.70985      346.624   0.12123546    346.50277    8028.9531    11109.474            0    5345.0885    66452.949    2613554.5  0.033274546    35815.421 
  237000     6705          400    8034.5816    7563.5994    470.98219      346.624   0.12715468    346.49685    8381.2056     11436.18            0     5673.346    67521.235    2613554.5  0.033274546    36254.368 
  238000     6705          400    8387.9119    7628.4415    759.47046      346.624   0.12862534    346.49538    8734.5359    11763.665            0    6001.8631    68596.258    2613554.5  0.033274546    36696.784 
  239000     6705          400    8710.9786    7676.9353    1034.0434      346.624   0.12232135    346.50168    9057.6026    12064.353            0    6304.4777    69500.264    2613554.5  0.033274546    37052.915 
  240000     6705          400    9031.1551    7721.4185    1309.7367      346.624   0.12342546    346.50058    9377.7791    12364.034            0    6604.7627    70378.796    2613554.5  0.033274546    37395.202 
  241000     6705          400    9375.0784    7776.3786    1598.6998      346.624   0.13158763    346.49242    9721.7024    12678.695            0    6920.7489    71354.608    2613554.5  0.033274546    37782.566 
  242000     6705          400    9683.4117    7812.9401    1870.4716      346.624   0.13751535    346.48649    10030.036    12965.254            0    7208.9031    72201.097    2613554.5  0.033274546    38112.469 
  243000     6705          400    9984.7144     7849.745    2134.9693      346.624   0.12839588    346.49561    10331.338    13245.261            0    7490.6015    73049.807    2613554.5  0.033274546    38448.044 
  244000     6705          400    10386.589     7916.744    2469.8447      346.624   0.12858485    346.49542    10733.213    13620.275            0    7867.8646    74305.616    2613554.5  0.033274546    38971.528 
  245000     6705          400    10784.601    7986.4163    2798.1843      346.624    0.1316693    346.49234    11131.225    13987.385            0    8237.9484     75468.21    2613554.5  0.033274546    39440.236 
  246000     6705          400    11156.614    8057.9215    3098.6925      346.624   0.13764541    346.48636    11503.238    14335.074            0    8588.1817    76640.992    2613554.5  0.033274546    39931.128 
  247000     6705          400    11525.919    8141.4106    3384.5083      346.624   0.14212304    346.48188    11872.543    14677.371            0    8933.4596    77833.441    2613554.5  0.033274546    40435.737 
  248000     6705          400    11952.132    8236.4203    3715.7113      346.624   0.14894268    346.47506    12298.756    15070.652            0     9331.043     79189.52    2613554.5  0.033274546    41005.769 
  249000     6705          400    12355.623    8315.4908    4040.1324      346.624   0.16102206    346.46298    12702.247    15440.426            0    9705.0123    80396.729    2613554.5  0.033274546    41498.469 
  250000     6705          400    12787.598    8398.3063    4389.2922      346.624   0.15663996    346.46736    13134.222    15836.536            0    10104.749     81743.79    2613554.5  0.033274546     42059.44 
  251000     6705          400    13191.707     8466.158    4725.5485      346.624    0.1636125    346.46039    13538.331    16208.807            0     10481.52     82974.94    2613554.5  0.033274546    42566.438 
  252000     6705          400    13612.419     8539.839    5072.5804      346.624   0.16039673    346.46361    13959.043    16598.708            0    10875.135    84267.299    2613554.5  0.033274546    43100.779 
  253000     6705          400    14052.491    8624.7649    5427.7258      346.624   0.16307065    346.46093    14399.115     17011.78            0    11290.483    85628.891    2613554.5  0.033274546    43665.695 
  254000     6705          400    14508.166    8710.8786    5797.2879      346.624   0.17171583    346.45229     14854.79    17435.709            0    11716.481    87017.104    2613554.5  0.033274546    44237.365 
  255000     6705          400    14965.492    8800.8889    6164.6027      346.624   0.17538092    346.44862    15312.116    17862.223            0    12145.739     88423.78    2613554.5  0.033274546    44819.342 
  256000     6705          400    15390.762     8880.244    6510.5184      346.624   0.17494207    346.44906    15737.386    18254.021            0    12540.703    89683.306    2613554.5  0.033274546    45330.762 
  257000     6705          400    15817.664    8956.4131    6861.2507      346.624   0.17583674    346.44817    16164.288    18648.467            0    12936.706    91041.736    2613554.5  0.033274546    45901.813 
  258000     6705          400    16252.748     9041.579    7211.1685      346.624   0.18259299    346.44141    16599.372    19053.648            0    13343.349    92396.541    2613554.5  0.033274546    46465.626 
  259000     6705          400    16663.691    9128.8565    7534.8344      346.624   0.18443891    346.43957    17010.315    19428.055            0    13720.649    93622.071    2613554.5  0.033274546    46964.989 
  260000     6705          400    17059.868    9218.6977    7841.1707      346.624   0.18794671    346.43606    17406.492    19783.831            0    14081.367    94836.281    2613554.5  0.033274546    47466.463 
  261000     6705          400    17436.233    9302.9119    8133.3216      346.624    0.1957414    346.42826    17782.857    20122.998            0    14425.038    96050.294    2613554.5  0.033274546    47979.963 
  262000     6705          400    17785.153    9379.3345    8405.8182      346.624   0.20023211    346.42377    18131.777    20436.263            0     14741.11    97120.853    2613554.5  0.033274546    48422.347 
  263000     6705          400    18132.645    9451.5025    8681.1428      346.624   0.20552784    346.41848    18479.269    20751.916            0    15058.139    98192.785    2613554.5  0.033274546    48866.447 
  264000     6705          400    18540.071    9530.8375    9009.2335      346.624   0.22289436    346.40111    18886.695    21121.623            0     15429.07    99446.654    2613554.5  0.033274546    49385.339 
  265000     6705          400    18902.711    9596.0006    9306.7106      346.624   0.22263688    346.40137    19249.335    21450.434            0    15760.581    100475.68    2613554.5  0.033274546    49793.848 
  266000     6705          400    19264.422    9663.0792    9601.3432      346.624   0.23003723    346.39397    19611.046    21783.039            0    16095.054    101457.07    2613554.5  0.033274546    50173.729 
  267000     6705          400    19666.023    9752.7328    9913.2902      346.624   0.22313083    346.40087    20012.647    22156.542            0    16470.017    102723.71    2613554.5  0.033274546    50704.022 
  268000     6705          400    20009.342    9831.5842    10177.758      346.624   0.21764382    346.40636    20355.966    22469.554            0    16785.347    103713.69    2613554.5  0.033274546    51100.442 
  269000     6705          400    20332.926    9875.0536    10457.873      346.624   0.21458189    346.40942     20679.55    22758.706            0    17078.411    104545.21    2613554.5  0.033274546    51411.817 
  270000     6705          400    20682.187    9924.8821    10757.305      346.624    0.2015564    346.42245    21028.811    23079.592            0    17405.087    105638.97    2613554.5  0.033274546    51868.216 
  271000     6705          400    21098.096    10000.748    11097.347      346.624   0.18982295    346.43418     21444.72    23466.719            0    17796.835    106952.64    2613554.5  0.033274546    52418.566 
  272000     6705          400    21512.087    10062.693    11449.394      346.624    0.1869089     346.4371    21858.711    23854.589            0    18188.469    108132.67    2613554.5  0.033274546    52888.169 
  273000     6705          400    21982.683    10142.563    11840.119      346.624   0.19286563    346.43114    22329.307    24299.267            0    18636.878    109633.56    2613554.5  0.033274546    53519.765 
  274000     6705          400    22430.265    10223.672    12206.594      346.624   0.21893225    346.40507    22776.889    24726.304            0    19067.203    111098.93    2613554.5  0.033274546    54143.695 
  275000     6705          400    22869.951    10305.043    12564.909      346.624   0.22022512    346.40378    23216.575    25148.248            0    19491.219    112550.75    2613554.5  0.033274546    54764.157 
  276000     6705          400    23249.292    10363.333    12885.959      346.624    0.2497189    346.37429    23595.916    25511.681            0    19858.886    113709.99    2613554.5  0.033274546    55242.258 
  277000     6705          400    23625.127     10414.81    13210.316      346.624   0.22964873    346.39436    23971.751    25874.513            0    20226.798    114961.55    2613554.5  0.033274546    55779.104 
  278000     6705          400    23970.464    10444.423    13526.042      346.624   0.23732466    346.38668    24317.088    26209.412            0    20566.416    116042.64    2613554.5  0.033274546    56230.134 
  279000     6705          400    24394.054    10472.453      13921.6      346.624   0.20475186    346.41925    24740.678    26628.923            0    20990.061    117338.13    2613554.5  0.033274546    56764.637 
  280000     6705          400    24853.347     10510.93    14342.417      346.624   0.19107089    346.43293    25199.971    27084.858            0    21449.938    118746.34    2613554.5  0.033274546    57346.347 
  281000     6705          400    25449.722    10599.084    14850.638      346.624   0.17408329    346.44992    25796.346    27663.659            0    22030.937    120677.41    2613554.5  0.033274546    58164.548 
  282000     6705          400    26043.832    10689.843    15353.989      346.624   0.16668632    346.45732    26390.456    28247.414            0    22615.484    122577.08    2613554.5  0.033274546    58964.892 
  283000     6705          400    26663.444    10771.887    15891.557      346.624   0.16673444    346.45727    27010.068     28852.71            0     23220.65    124459.01    2613554.5  0.033274546    59738.722 
  284000     6705          400     27214.57     10838.79     16375.78      346.624   0.17895846    346.44505    27561.194     29386.57            0    23757.616    126130.39    2613554.5  0.033274546    60425.466 
  285000     6705          400    27790.844    10931.267    16859.576      346.624   0.19274952    346.43126    28137.468    29938.072            0     24313.65    128035.52    2613554.5  0.033274546    61240.089 
  286000     6705          400    28372.031    11030.465    17341.566      346.624   0.21228901    346.41172    28718.655    30486.195            0    24865.683    129801.36    2613554.5  0.033274546    61966.311 
  287000     6705          400    28893.199     11108.84    17784.359      346.624   0.24400847       346.38    29239.823    30978.661            0    25361.318    131334.09    2613554.5  0.033274546    62586.428 
  288000     6705          400    29482.356    11214.309    18268.047      346.624   0.24390232     346.3801     29828.98    31535.088            0    25920.961    133216.82    2613554.5  0.033274546    63379.423 
  289000     6705          400    30070.293    11344.497    18725.796      346.624   0.25111466    346.37289    30416.917    32081.023            0    26469.593    135172.86    2613554.5  0.033274546    64218.106 
  290000     6705          400    30584.368     11452.15    19132.218      346.624    0.2608448    346.36316    30930.992    32550.753            0     26943.01    136829.34    2613554.5  0.033274546    64918.427 
  291000     6705          400    31102.992    11544.951    19558.041      346.624   0.26986097    346.35414    31449.616    33034.159            0    27430.996    138462.06    2613554.5  0.033274546    65601.397 
  292000     6705          400     31704.85     11673.54     20031.31      346.624    0.2840767    346.33993    32051.474    33597.783            0    27997.662     140366.3    2613554.5  0.033274546    66399.792 
  293000     6705          400    32254.212    11786.168    20468.044      346.624   0.33394203    346.29006    32600.836    34104.602            0     28508.93    141984.55    2613554.5  0.033274546    67055.046 
  294000     6705          400    32710.025     11868.88    20841.144      346.624   0.32137941    346.30263    33056.649    34522.886            0    28934.112    143240.76    2613554.5  0.033274546    67545.714 
  295000     6705          400    33118.711     11956.94    21161.771      346.624   0.32083191    346.30317    33465.335    34894.822            0    29312.463    144465.33    2613554.5  0.033274546    68045.867 
  296000     6705          400    33529.261    12043.056    21486.205      346.624    0.3376725    346.28633    33875.885    35271.717            0    29690.758    145747.51    2613554.5  0.033274546    68580.198 
  297000     6705          400    33958.592    12128.175    21830.418      346.624   0.33341055    346.29059    34305.216    35658.826            0    30079.495    146961.22    2613554.5  0.033274546    69061.043 
  298000     6705          400    34269.742    12211.722     22058.02      346.624   0.34122732    346.28278    34616.366    35923.411            0    30348.023    147845.65    2613554.5  0.033274546     69412.48 
  299000     6705          400    34639.066    12300.451    22338.615      346.624   0.35279067    346.27121     34985.69     36239.44            0    30667.377    148896.02    2613554.5  0.033274546    69829.981 
  300000     6705          400    35022.216    12391.541    22630.675      346.624   0.35977116    346.26423     35368.84    36572.176            0     31002.88    149961.71    2613554.5  0.033274546    70248.394 
  301000     6705          400     35336.11    12468.714    22867.397      346.624   0.35864308    346.26536    35682.734     36851.23            0    31283.122    150800.59    2613554.5  0.033274546    70570.223 
  302000     6705          400    35665.293    12545.104    23120.189      346.624   0.35907004    346.26493    36011.917    37140.256            0    31573.434    151682.53    2613554.5  0.033274546     70909.08 
  303000     6705          400    35996.468    12643.091    23353.378      346.624   0.36556623    346.25844    36343.092    37426.521            0    31861.597    152639.13    2613554.5  0.033274546    71292.482 
  304000     6705          400    36227.004    12708.317    23518.686      346.624   0.35709604    346.26691    36573.628    37604.275            0    32039.843    153192.75    2613554.5  0.033274546    71490.537 
  305000     6705          400    36559.566    12801.453    23758.112      346.624   0.35663547    346.26737     36906.19    37883.776            0    32320.892    154129.38    2613554.5  0.033274546    71860.848 
  306000     6705          400    36862.955    12893.551    23969.404      346.624   0.35842273    346.26558    37209.579    38134.393            0    32572.565    154949.78    2613554.5  0.033274546    72177.787 
  307000     6705          400    37095.695    12977.588    24118.108      346.624   0.36241108    346.26159    37442.319    38324.286            0     32762.78    155587.18    2613554.5  0.033274546    72425.858 
  308000     6705          400    37248.689    13061.544    24187.145      346.624   0.36572144    346.25828    37595.313    38432.562            0    32871.137    156043.04    2613554.5  0.033274546    72611.522 
  309000     6705          400    37376.162    13142.396    24233.766      346.624   0.36409812    346.25991    37722.786    38519.782            0    32957.834    156371.38    2613554.5  0.033274546    72734.657 
  310000     6705          400    37460.561    13216.345    24244.216      346.624   0.37033681    346.25367    37807.185    38562.995            0    33000.691     156550.6    2613554.5  0.033274546    72792.784 
  311000     6705          400     37528.37    13291.929    24236.441      346.624   0.38798915    346.23602    37874.994    38582.113            0    33020.009    156644.03    2613554.5  0.033274546    72808.493 
  312000     6705          400    37575.207    13348.366    24226.841      346.624   0.38290275     346.2411    37921.831    38581.749            0    33019.764    156609.19    2613554.5  0.033274546    72758.419 
  313000     6705          400     37550.77    13372.514    24178.257      346.624   0.36887763    346.25513    37897.394    38520.595            0    32957.754    156224.96    2613554.5  0.033274546     72537.86 
  314000     6705          400    37594.147    13414.691    24179.455      346.624   0.34362831    346.28038    37940.771    38536.047            0    32972.598     156247.7    2613554.5  0.033274546    72525.209 
  315000     6705          400    37645.826    13464.579    24181.247      346.624   0.33684078    346.28716     37992.45    38564.864            0    33000.616    156370.57    2613554.5  0.033274546    72568.847 
  316000     6705          400    37681.474     13488.82    24192.655      346.624   0.35078318    346.27322    38028.098    38584.615            0    33019.993     156409.9    2613554.5  0.033274546    72571.108 
  317000     6705          400     37743.11     13518.47     24224.64      346.624   0.33137479    346.29263    38089.734    38622.718            0    33057.785    156489.33    2613554.5  0.033274546    72582.014 
  318000     6705          400    37768.083    13542.301    24225.782      346.624   0.32638735    346.29762    38114.707     38623.44            0    33059.216     156441.2    2613554.5  0.033274546      72537.2 
  319000     6705          400     37764.89    13567.178    24197.712      346.624   0.31423064    346.30977    38111.514    38601.364            0    33037.867    156389.91    2613554.5  0.033274546    72507.715 
  320000     6705          400    37781.204      13606.1    24175.104      346.624   0.30848156    346.31552    38127.828    38598.774            0     33036.41    156413.14    2613554.5  0.033274546    72511.955 
  321000     6705          400    37836.172     13641.35    24194.822      346.624   0.31085827    346.31315    38182.796    38634.601            0    33073.197    156432.52    2613554.5  0.033274546    72490.139 
  322000     6705          400    37920.613    13695.016    24225.597      346.624   0.31121698    346.31279    38267.237    38693.077            0    33131.852    156576.94    2613554.5  0.033274546    72526.907 
  323000     6705          400    37959.316    13742.172    24217.144      346.624   0.30999353    346.31401     38305.94    38703.029            0     33141.18    156564.13    2613554.5  0.033274546    72495.332 
  324000     6705          400    37983.961    13776.956    24207.005      346.624   0.31570014     346.3083    38330.585    38699.884            0    33137.878     156476.3    2613554.5  0.033274546    72426.377 
  325000     6705          400    38053.952    13824.619    24229.333      346.624   0.32407394    346.29993    38400.576    38738.293            0    33175.699    156547.34    2613554.5  0.033274546    72427.022 
  326000     6705          400    38124.023    13880.587    24243.436      346.624   0.33188146    346.29212    38470.647    38773.132            0    33210.386    156595.45    2613554.5  0.033274546    72413.563 
  327000     6705          400    38171.062    13929.698    24241.364      346.624   0.33044231    346.29356    38517.686    38785.867            0    33223.221    156547.19    2613554.5  0.033274546    72355.139 
  328000     6705          400    38186.478    13978.646    24207.833      346.624    0.3338562    346.29015    38533.102    38767.232            0    33204.678    156404.89    2613554.5  0.033274546    72258.454 
  329000     6705          400     38209.59    14022.185    24187.405      346.624   0.33274122    346.29126    38556.214     38762.81            0    33199.086    156317.12    2613554.5  0.033274546    72190.479 
  330000     6705          400    38234.918    14063.993    24170.925      346.624   0.33010382     346.2939    38581.542    38760.086            0    33195.645    156227.69    2613554.5  0.033274546    72120.134 
  331000     6705          400    38281.344    14109.306    24172.039      346.624   0.32945058    346.29455    38627.968    38776.421            0    33213.027    156227.85    2613554.5  0.033274546    72091.772 
  332000     6705          400    38370.081    14164.874    24205.207      346.624   0.32785473    346.29615    38716.705    38832.419            0     33269.77    156397.94    2613554.5  0.033274546    72141.642 
  333000     6705          400      38431.7    14217.021    24214.679      346.624   0.33303611    346.29097    38778.324    38863.599            0    33300.555    156506.22    2613554.5  0.033274546    72170.243 
  334000     6705          400    38486.806    14256.518    24230.289      346.624   0.34642278    346.27758     38833.43    38893.116            0    33331.252    156583.36    2613554.5  0.033274546    72183.752 
  335000     6705          400    38529.904    14295.254     24234.65      346.624   0.33876209    346.28524    38876.528     38909.09            0     33349.93    156654.19    2613554.5  0.033274546    72200.755 
  336000     6705          400    38581.981    14346.058    24235.923      346.624   0.32972245    346.29428    38928.605    38935.949            0    33378.034    156779.15    2613554.5  0.033274546    72245.436 
  337000     6705          400    38655.092     14402.29    24252.802      346.624    0.3290904    346.29491    39001.716    38981.389            0    33425.682     156956.1    2613554.5  0.033274546    72309.089 
  338000     6705          400    38729.404    14446.901    24282.502      346.624   0.32964501    346.29436    39076.028    39029.569            0    33476.819    157139.66    2613554.5  0.033274546     72376.06 
  339000     6705          400    38822.486    14477.325     24345.16      346.624   0.34504543    346.27896     39169.11    39095.515            0    33548.516    157326.13    2613554.5  0.033274546    72433.308 
  340000     6705          400    38886.691    14481.195    24405.496      346.624   0.32909727    346.29491    39233.315    39140.388            0    33601.369     157337.3    2613554.5  0.033274546      72400.8 
  341000     6705          400    39125.306    14532.379    24592.927      346.624   0.32590454     346.2981     39471.93    39356.471            0    33821.257    157963.19    2613554.5  0.033274546    72638.207 
  342000     6705          400    39348.614    14599.696    24748.919      346.624   0.33025512    346.29375    39695.238    39551.214            0    34017.583    158604.96    2613554.5  0.033274546    72894.738 
  343000     6705          400    39580.019    14663.675    24916.344      346.624   0.34003491    346.28397    39926.643    39750.599            0    34218.976    159239.08    2613554.5  0.033274546     73141.61 
  344000     6705          400    39872.457    14726.436    25146.022      346.624   0.35049691    346.27351    40219.081    40011.628            0    34483.504    160050.84    2613554.5  0.033274546     73459.97 
  345000     6705          400    40194.853    14778.442    25416.412      346.624    0.3493887    346.27462    40541.477    40298.995            0    34773.361     160871.6    2613554.5  0.033274546    73765.478 
  346000     6705          400    40597.663    14848.474    25749.189      346.624   0.34302081    346.28098    40944.287    40670.862            0    35149.168    161946.96    2613554.5  0.033274546    74177.769 
  347000     6705          400    41026.552    14935.902     26090.65      346.624   0.34697257    346.27703    41373.176    41067.849            0    35551.097    163222.29    2613554.5  0.033274546    74696.658 
  348000     6705          400    41412.818    15012.452    26400.366      346.624   0.35798973    346.26602    41759.442    41420.529            0    35905.816     164267.6    2613554.5  0.033274546    75100.668 
  349000     6705          400    41847.555    15079.318    26768.237      346.624   0.38294437    346.24106    42194.179    41821.503            0    36307.699    165440.55    2613554.5  0.033274546    75553.212 
  350000     6705          400     42277.26    15153.736    27123.525      346.624   0.37442964    346.24958    42623.884    42222.156            0    36712.385    166680.62    2613554.5  0.033274546    76049.989 
  351000     6705          400    42696.839    15228.995    27467.844      346.624   0.38813822    346.23587    43043.463    42617.534            0    37108.961    167911.68    2613554.5  0.033274546    76547.446 
  352000     6705          400    43148.558    15300.603    27847.955      346.624   0.39527223    346.22873    43495.182    43047.082            0    37538.215    169211.93    2613554.5  0.033274546    77067.621 
  353000     6705          400    43639.153    15377.141    28262.012      346.624   0.40985512    346.21415    43985.777    43510.327            0    38003.647    170594.94    2613554.5  0.033274546    77614.695 
  354000     6705          400    44019.854    15426.611    28593.243      346.624   0.41419944    346.20981    44366.478    43859.443            0    38357.597    171537.46    2613554.5  0.033274546    77959.104 
  355000     6705          400    44519.043     15492.29    29026.753      346.624   0.42151415    346.20249    44865.667    44324.101            0    38828.933    172924.25    2613554.5  0.033274546    78503.227 
  356000     6705          400     45060.62    15574.547    29486.073      346.624   0.41699376    346.20701    45407.244     44829.18            0    39338.429    174516.24    2613554.5  0.033274546    79147.153 
  357000     6705          400    45612.833    15679.176    29933.657      346.624   0.41981862    346.20419    45959.457    45345.845            0     39857.95    176220.55    2613554.5  0.033274546    79853.419 
  358000     6705          400    46200.748    15801.422    30399.325      346.624    0.4165214    346.20748    46547.372    45892.861            0    40409.567    178144.29    2613554.5  0.033274546    80672.318 
  359000     6705          400    46677.375    15882.133    30795.243      346.624   0.41341604    346.21059    47023.999    46332.806            0    40857.139    179612.98    2613554.5  0.033274546    81280.474 
  360000     6705          400     47225.24    15956.687    31268.553      346.624   0.41359128    346.21041    47571.864    46847.383            0    41378.165    181088.84    2613554.5  0.033274546    81849.357 
  361000     6705          400    47822.863    16054.751    31768.112      346.624   0.43437645    346.18963    48169.487     47403.49            0    41937.976    182851.28    2613554.5  0.033274546    82563.422 
  362000     6705          400    48505.033    16162.898    32342.135      346.624   0.47070908     346.1533    48851.657    48034.935            0    42573.015    184700.16    2613554.5  0.033274546    83278.645 
  363000     6705          400    49191.708    16300.625    32891.082      346.624   0.50625782    346.11775    49538.332    48659.546            0    43201.844    186707.74    2613554.5  0.033274546    84088.398 
  364000     6705          400    49892.458    16435.824    33456.634      346.624   0.52661434    346.09739    50239.082    49304.494            0    43852.464    188716.23    2613554.5  0.033274546    84890.075 
  365000     6705          400    50631.311    16579.394    34051.916      346.624   0.56478513    346.05922    50977.935    49979.701            0    44529.351    190851.53    2613554.5  0.033274546    85746.133 
  366000     6705          400     51218.07    16686.787    34531.283      346.624   0.59070246     346.0333    51564.694    50509.804            0    45059.867    192498.01    2613554.5  0.033274546     86395.77 
  367000     6705          400    51932.647    16770.849    35161.798      346.624   0.63364238    345.99036    52279.271    51167.848            0    45717.822    194397.21    2613554.5  0.033274546    87121.976 
  368000     6705          400    52757.146    16888.969    35868.177      346.624   0.66537251    345.95863     53103.77    51926.758            0    46477.615    196709.25    2613554.5  0.033274546    88033.875 
  369000     6705          400     53602.61    17037.252    36565.358      346.624   0.69480844     345.9292    53949.234    52690.565            0    47248.413    199010.98    2613554.5  0.033274546    88926.605 
  370000     6705          400    54489.694    17231.439    37258.256      346.624   0.73504762    345.88896    54836.318    53484.596            0     48051.14    201623.69    2613554.5  0.033274546    89984.456 
  371000     6705          400    55347.727    17425.927    37921.799      346.624   0.73121528    345.89279    55694.351    54259.625            0     48831.15    204202.55    2613554.5  0.033274546    91039.366 
  372000     6705          400    56115.232    17578.827    38536.405      346.624   0.75654399    345.86746    56461.856    54950.915            0    49525.872     206415.3    2613554.5  0.033274546    91925.339 
  373000     6705          400    56849.649    17730.675    39118.973      346.624   0.77736666    345.84664    57196.273      55607.2            0    50183.201     208476.6    2613554.5  0.033274546    92738.754 
  374000     6705          400    57643.853     17920.98    39722.874      346.624   0.87001615    345.75399    57990.477    56314.688            0    50895.191    210847.44    2613554.5  0.033274546    93705.274 
  375000     6705          400    58539.584     18127.18    40412.404      346.624   0.96082977    345.66318    58886.208    57101.882            0    51688.962    213479.76    2613554.5  0.033274546    94769.844 
  376000     6705          400    59329.778    18279.048     41050.73      346.624   0.95332629    345.67068    59676.402    57806.256            0    52396.474    215471.32    2613554.5  0.033274546    95506.318 
  377000     6705          400     60209.62    18429.829    41779.791      346.624   0.97244024    345.65156    60556.244    58588.606            0    53186.922    217711.55    2613554.5  0.033274546     96340.27 
  378000     6705          400    61136.583     18598.21    42538.373      346.624    1.0171411    345.60686    61483.207    59414.305            0    54023.581    220277.76    2613554.5  0.033274546    97345.168 
  379000     6705          400    62249.912     18778.54    43471.372      346.624    1.1214067     345.5026    62596.536     60436.11            0    55054.601     223458.9    2613554.5  0.033274546    98612.788 
  380000     6705          400    63277.309    18953.627    44323.682      346.624    1.0270774    345.59693    63623.933    61383.021            0    56006.903    226400.45    2613554.5  0.033274546    99786.216 
  381000     6705          400    64269.982    19151.424    45118.557      346.624    1.0467682    345.57724    64616.606    62289.071            0    56922.053    229314.51    2613554.5  0.033274546    100964.08 
  382000     6705          400    65188.029    19305.026    45883.004      346.624    1.1409059     345.4831    65534.653    63118.872            0    57761.253    231819.31    2613554.5  0.033274546    101936.79 
  383000     6705          400     66400.58    19536.754    46863.826      346.624    1.2476331    345.37637    66747.204     64226.32            0    58878.864    235491.12    2613554.5  0.033274546    103444.39 
  384000     6705          400    67739.779    19794.755    47945.023      346.624    1.3830483    345.24096    68086.403    65443.749            0    60110.507    239407.47    2613554.5  0.033274546    105024.25 
  385000     6705          400    69007.225    20045.672    48961.554      346.624    1.4305153    345.19349    69353.849    66578.493            0    61256.197    243039.19    2613554.5  0.033274546    106473.61 
  386000     6705          400    70106.141    20265.627    49840.513      346.624    1.5089115    345.11509    70452.765    67566.354            0    62253.279    246244.36    2613554.5  0.033274546    107764.79 
  387000     6705          400    71111.204     20433.93    50677.273      346.624    1.4243498    345.19966    71457.828    68492.711            0    63189.819    249213.53    2613554.5  0.033274546    108968.84 
  388000     6705          400    72176.121    20649.302    51526.819      346.624    1.6195149    345.00449    72522.745    69454.944            0    64164.079    252409.82    2613554.5  0.033274546    110275.43 
  389000     6705          400    73000.378     20860.98    52139.398      346.624    1.8795685    344.74444    73347.002    70172.261            0    64888.634    254690.67    2613554.5  0.033274546    111168.36 
  390000     6705          400     74008.15    21108.803    52899.347      346.624    2.0614236    344.56258    74354.774    71054.889            0    65779.351    257416.87    2613554.5  0.033274546     112221.8 
  391000     6705          400    75124.268    21406.684    53717.584      346.624    2.5269617    344.09704    75470.892    72032.617            0     66761.44    260598.39    2613554.5  0.033274546    113487.95 
  392000     6705          400     76137.19    21704.372    54432.818      346.624    3.0999371    343.52407    76483.814    72889.047            0    67616.848    263420.71    2613554.5  0.033274546    114597.15 
  393000     6705          400    76893.331    21979.027    54914.304      346.624     3.472979    343.15103    77239.955    73474.222            0     68201.49    265327.89    2613554.5  0.033274546    115302.77 
  394000     6705          400    77779.587    22254.859    55524.728      346.624    3.9718903    342.65211    78126.211    74210.241            0    68939.903    267649.26    2613554.5  0.033274546    116182.53 
  395000     6705          400    78511.526    22552.597    55958.929      346.624    3.9904982    342.63351     78858.15    74752.318            0    69491.995    269450.78    2613554.5  0.033274546    116838.21 
  396000     6705          400     79294.59    22896.987    56397.602      346.624    4.8614789    341.76253    79641.214    75330.759            0    70075.987    271369.38    2613554.5  0.033274546    117534.32 
  397000     6705          400    79881.281    23247.809    56633.472      346.624    5.1964525    341.42755    80227.905    75703.597            0    70450.039    272652.14    2613554.5  0.033274546    117961.04 
  398000     6705          400    80145.899    23529.218    56616.682      346.624    5.4992972    341.12471    80492.523    75764.764            0    70509.781    272856.67    2613554.5  0.033274546     117924.2 
  399000     6705          400    80452.443    23833.458    56618.984      346.624     6.785354    339.83865    80799.067     75844.47            0    70588.242    273238.33    2613554.5  0.033274546    117970.25 
  400000     6705          400    80720.706    24180.023    56540.683      346.624    7.7589788    338.86503     81067.33    75880.183            0    70625.207    273518.06    2613554.5  0.033274546    117977.28 
  401000     6705          400    80693.761    24527.617    56166.144      346.624    8.1826237    338.44138    81040.385    75606.823            0    70356.301    272806.48    2613554.5  0.033274546    117557.57 
  402000     6705          400     80656.03    24838.456    55817.574      346.624    7.2512311    339.37277    81002.654    75345.033            0    70089.546    271915.49    2613554.5  0.033274546     117034.5 
  403000     6705          400    80110.162    24847.801    55262.362      346.624    7.3664445    339.25756    80456.786    74724.285            0    69462.758    269279.19    2613554.5  0.033274546    115753.02 
  404000     6705          400    79695.316    25061.733    54633.583      346.624     6.442945    340.18106     80041.94    74151.571            0    68886.813    267449.56    2613554.5  0.033274546    114885.72 
  405000     6705          400    79002.598     25041.52    53961.079      346.624    7.2265514    339.39745    79349.222    73410.063            0    68138.994     264398.4    2613554.5  0.033274546    113439.94 
  406000     6705          400    78763.229    25260.515    53502.715      346.624    6.5018007     340.1222    79109.853    73030.841            0    67760.136    263042.29    2613554.5  0.033274546    112755.34 
  407000     6705          400    78538.556    25447.687    53090.869      346.624    5.7864845    340.83752     78885.18    72677.365            0    67412.381    261858.95    2613554.5  0.033274546    112167.65 
  408000     6705          400    78048.579    25450.731    52597.848      346.624    6.1395408    340.48446    78395.203     72177.57            0    66908.807    259833.71    2613554.5  0.033274546     111226.5 
  409000     6705          400    77845.373    25782.098    52063.275      346.624    7.0835498    339.54046    78191.997    71781.789            0    66509.023    258714.89    2613554.5  0.033274546    110665.21 
  410000     6705          400    77309.645     25870.44    51439.205      346.624    5.8801499    340.74385    77656.269    71139.412            0    65861.255    256141.37    2613554.5  0.033274546    109415.99 
  411000     6705          400    76589.197    25816.159    50773.038      346.624    5.2849436    341.33906    76935.821    70427.662            0    65145.575    253267.73    2613554.5  0.033274546    108096.02 
  412000     6705          400    75368.825    25479.893    49888.932      346.624    6.3183349    340.30567    75715.449    69352.844            0     64066.02    248908.72    2613554.5  0.033274546    106171.96 
  413000     6705          400    74630.157    25385.752    49244.405      346.624    4.7585616    341.86544    74976.781    68702.294            0     63412.73    246560.48    2613554.5  0.033274546    105185.25 
  414000     6705          400    73803.764    25188.488    48615.275      346.624    4.9276755    341.69633    74150.388    68013.969            0    62724.179    243811.33    2613554.5  0.033274546    104006.55 
  415000     6705          400    73354.481    25158.647    48195.834      346.624    4.4342588    342.18975    73701.105    67613.445            0    62326.788     242269.8    2613554.5  0.033274546    103336.97 
  416000     6705          400    73080.782    25189.991    47890.791      346.624    4.8380906    341.78591    73427.406    67339.647            0     62051.97    241090.18    2613554.5  0.033274546    102781.62 
  417000     6705          400    72783.051     25153.23    47629.821      346.624     4.314587    342.30942    73129.675    67059.758            0    61771.679    239660.26    2613554.5  0.033274546    102087.56 
  418000     6705          400    72346.371    25095.023    47251.348      346.624    5.1354193    341.48859    72692.995      66663.9            0    61375.296    237957.36    2613554.5  0.033274546    101311.33 
  419000     6705          400    71716.107    24919.054    46797.053      346.624      3.80479    342.81921    72062.731     66150.94            0    60860.485    235670.06    2613554.5  0.033274546    100295.52 
  420000     6705          400    71191.656    24902.924    46288.731      346.624    3.8789579    342.74505     71538.28    65638.686            0    60346.745    233723.71    2613554.5  0.033274546    99423.866 
  421000     6705          400     70889.23    24941.188    45948.042      346.624    3.8611277    342.76288    71235.854    65322.518            0     60028.19    232568.52    2613554.5  0.033274546    98901.098 
  422000     6705          400    70445.063    24924.592     45520.47      346.624     3.461957    343.16205    70791.687     64890.61            0    59592.406    230914.41    2613554.5  0.033274546    98159.369 
  423000     6705          400     70158.88    24964.514    45194.366      346.624     3.679892    342.94411    70505.504    64587.754            0    59286.892    229645.95    2613554.5  0.033274546     97557.21 
  424000     6705          400    69927.467    25024.203    44903.264      346.624    3.4730321    343.15097    70274.091    64302.548            0    59001.232    228354.73    2613554.5  0.033274546    96907.522 
  425000     6705          400    69695.466    25094.955    44600.512      346.624    3.3767821    343.24722     70042.09    64018.394            0    58715.633    227133.17    2613554.5  0.033274546    96300.897 
  426000     6705          400    69439.231     25113.49    44325.741      346.624    3.1541253    343.46988    69785.855    63733.838            0    58427.851    225862.64    2613554.5  0.033274546     95679.11 
  427000     6705          400    69168.021    25132.287    44035.734      346.624     3.144389    343.47962    69514.645     63435.13            0    58126.748    224565.68    2613554.5  0.033274546    95050.297 
  428000     6705          400    68844.359    25156.687    43687.672      346.624    3.2850038      343.339    69190.983    63097.715            0    57785.771    223184.62    2613554.5  0.033274546    94402.083 
  429000     6705          400    68498.276    25154.824    43343.452      346.624    3.1172213    343.50678      68844.9    62738.936            0    57427.002    221620.83    2613554.5  0.033274546    93655.598 
  430000     6705          400    68216.343    25145.861    43070.482      346.624    2.8558636    343.76814    68562.967    62441.284            0    57130.162     220205.1    2613554.5  0.033274546    92960.551 
  431000     6705          400    68089.315    25164.363    42924.952      346.624    2.7273752    343.89663    68435.939    62289.282            0    56976.276    219257.27    2613554.5  0.033274546    92457.377 
  432000     6705          400    68025.134    25211.705    42813.429      346.624    2.6563794    343.96763    68371.758    62191.282            0    56878.969    218659.91    2613554.5  0.033274546    92130.525 
  433000     6705          400    67834.658    25226.427    42608.231      346.624    2.4596073     344.1644    68181.282    61974.827            0    56662.338    217644.56    2613554.5  0.033274546    91624.857 
  434000     6705          400    67658.392    25255.318    42403.074      346.624    2.2126108    344.41139    68005.016    61746.579            0    56435.186    216451.46    2613554.5  0.033274546    91001.509 
  435000     6705          400    67493.362    25292.604    42200.758      346.624    2.0655038     344.5585    67839.986    61530.012            0    56220.138    215338.11    2613554.5  0.033274546    90420.165 
  436000     6705          400    67374.762    25326.987    42047.775      346.624    2.0915571    344.53245    67721.386    61379.119            0    56065.803    214509.19    2613554.5  0.033274546    89984.722 
  437000     6705          400    67207.412    25350.335    41857.077      346.624    1.8945863    344.72942    67554.036    61178.725            0    55862.849    213537.53    2613554.5  0.033274546    89491.658 
  438000     6705          400      67015.6    25396.641    41618.959      346.624    1.8063388    344.81767    67362.224    60959.416            0    55641.512    212575.37    2613554.5  0.033274546    89019.414 
  439000     6705          400    66790.343    25418.879    41371.464      346.624    1.7122549    344.91175    67136.967    60717.905            0    55397.572    211560.43    2613554.5  0.033274546    88535.322 
  440000     6705          400    66606.607    25432.254    41174.352      346.624    1.4710035      345.153    66953.231    60518.717            0    55197.906    210574.26    2613554.5  0.033274546    88043.405 
  441000     6705          400    66366.525    25442.302    40924.223      346.624    1.3813815    345.24262    66713.149     60275.28            0    54951.345    209569.43    2613554.5  0.033274546    87574.596 
  442000     6705          400    66117.699    25420.103    40697.596      346.624     1.327152    345.29685    66464.323    60033.765            0    54707.488    208438.26    2613554.5  0.033274546    87033.695 
  443000     6705          400     65882.44    25389.259     40493.18      346.624    1.2375616    345.38644    66229.064    59812.644            0     54486.26    207413.29    2613554.5  0.033274546    86549.584 
  444000     6705          400    65671.976     25371.81    40300.166      346.624    1.2181762    345.40583      66018.6    59617.845            0    54287.959    206594.16    2613554.5  0.033274546    86176.458 
  445000     6705          400     65511.42    25373.285    40138.135      346.624     1.256554    345.36745    65858.044    59457.824            0    54123.994    205822.14    2613554.5  0.033274546    85801.612 
  446000     6705          400    65349.372    25413.163    39936.208      346.624    1.1865022     345.4375    65695.996    59270.571            0    53934.165     205226.5    2613554.5  0.033274546    85535.807 
  447000     6705          400    65186.222    25446.154    39740.068      346.624    1.1918427    345.43216    65532.846    59078.117            0    53739.759     204457.6    2613554.5  0.033274546    85164.466 
  448000     6705          400    65020.096    25476.893    39543.203      346.624    1.2753948    345.34861     65366.72    58890.475            0    53551.861    203714.73    2613554.5  0.033274546    84810.907 
  449000     6705          400    64846.509    25500.763    39345.746      346.624    1.1452086     345.4788    65193.133    58686.723            0    53346.653     202816.5    2613554.5  0.033274546    84366.683 
  450000     6705          400    64725.508    25528.486    39197.023      346.624    1.1287279    345.49528    65072.132    58534.136            0    53192.528    202108.72    2613554.5  0.033274546    84006.975 
  451000     6705          400    64661.641    25555.339    39106.302      346.624    1.0833841    345.54062    65008.265    58439.564            0    53096.837    201571.87    2613554.5  0.033274546    83717.024 
  452000     6705          400    64572.224    25569.307    39002.917      346.624    1.0404797    345.58353    64918.848    58330.424            0     52988.56    201033.39    2613554.5  0.033274546    83441.733 
  453000     6705          400    64446.185    25584.239    38861.946      346.624   0.99441133    345.62959    64792.809    58192.122            0    52849.688    200385.48    2613554.5  0.033274546    83121.813 
  454000     6705          400    64366.259    25604.637    38761.622      346.624   0.96135664    345.66265    64712.883    58085.099            0    52742.621    199812.27    2613554.5  0.033274546    82819.416 
  455000     6705          400     64301.51    25625.461    38676.049      346.624   0.90903789    345.71497    64648.134    57989.041            0    52645.904    199223.04    2613554.5  0.033274546    82497.901 
  456000     6705          400    64241.483    25650.746    38590.737      346.624    0.8648346    345.75917    64588.107    57899.491            0    52554.887    198678.94    2613554.5  0.033274546     82201.15 
  457000     6705          400      64163.1    25675.699    38487.401      346.624   0.86834936    345.75566    64509.724    57799.623            0    52453.902    198132.76    2613554.5  0.033274546     81914.38 
  458000     6705          400    64085.101    25701.369    38383.731      346.624   0.83955347    345.78445    64431.725    57698.838            0     52350.85    197623.12    2613554.5  0.033274546    81649.771 
  459000     6705          400    63996.045    25719.535     38276.51      346.624   0.79432711    345.82968    64342.669     57594.63            0     52246.99    197102.04    2613554.5  0.033274546    81384.928 
  460000     6705          400    63899.692    25747.681    38152.012      346.624   0.76628045    345.85772    64246.316    57473.015            0    52126.372    196535.59    2613554.5  0.033274546    81096.749 
  461000     6705          400    63811.096    25779.509    38031.588      346.624   0.73433783    345.88967     64157.72    57355.267            0     52009.51    195916.86    2613554.5  0.033274546    80771.762 
  462000     6705          400    63750.229    25811.449     37938.78      346.624   0.72088794    345.90312    64096.853    57271.063            0    51924.966    195441.81    2613554.5  0.033274546    80517.854 
  463000     6705          400    63619.682    25830.786    37788.895      346.624   0.68206155    345.94194    63966.306    57115.867            0    51770.129    194778.03    2613554.5  0.033274546    80190.973 
  464000     6705          400    63473.813     25855.25    37618.562      346.624   0.64980046     345.9742    63820.437    56947.603            0    51601.053    194115.83    2613554.5  0.033274546    79874.449 
  465000     6705          400    63315.106    25865.981    37449.125      346.624   0.61312677    346.01088     63661.73    56772.063            0    51424.913    193375.96    2613554.5  0.033274546    79518.176 
  466000     6705          400    63172.631    25878.301    37294.331      346.624   0.57105806    346.05295    63519.255    56618.208            0    51268.727    192712.19    2613554.5  0.033274546    79198.612 
  467000     6705          400     63020.93    25884.419    37136.512      346.624   0.57784054    346.04616    63367.554    56456.993            0    51104.813     192037.3    2613554.5  0.033274546    78877.882 
  468000     6705          400    62836.635    25859.796     36976.84      346.624   0.50546751    346.11854    63183.259    56275.344            0    50920.535    191144.23    2613554.5  0.033274546    78443.383 
  469000     6705          400    62676.388    25816.095    36860.293      346.624   0.47555295    346.14845    63023.012      56132.6            0    50777.465    190409.34    2613554.5  0.033274546    78091.116 
  470000     6705          400     62554.96    25788.904    36766.056      346.624   0.43160263     346.1924    62901.584    56026.251            0    50670.561     189846.2    2613554.5  0.033274546    77820.334 
  471000     6705          400    62446.489    25757.403    36689.086      346.624   0.48202514    346.14198    62793.113    55928.925            0    50571.439    189322.18    2613554.5  0.033274546    77565.591 
  472000     6705          400    62336.356    25731.216    36605.141      346.624   0.42817215    346.19583     62682.98    55831.461            0    50472.459    188803.32    2613554.5  0.033274546    77315.032 
  473000     6705          400    62221.514    25714.324     36507.19      346.624   0.44641841    346.17759    62568.138    55721.691            0    50360.706    188270.18    2613554.5  0.033274546    77058.602 
  474000     6705          400    62057.299    25687.608     36369.69      346.624   0.40425368    346.21975    62403.923    55569.884            0    50207.408    187675.55    2613554.5  0.033274546    76794.751 
  475000     6705          400    61866.279    25649.071    36217.207      346.624   0.44996284    346.17404    62212.903    55406.036            0    50041.735    186981.19    2613554.5  0.033274546    76486.189 
  476000     6705          400    61695.711    25617.451     36078.26      346.624   0.38737642    346.23663    62042.335    55255.437            0    49889.605    186313.89    2613554.5  0.033274546    76181.679 
  477000     6705          400    61534.321    25599.265    35935.056      346.624   0.36546712    346.25854    61880.945    55111.274            0    49745.241    185687.69    2613554.5  0.033274546    75896.734 
  478000     6705          400    61421.181    25592.605    35828.576      346.624   0.32054584    346.30346    61767.805      55007.1            0    49640.733    185205.38    2613554.5  0.033274546    75670.427 
  479000     6705          400    61303.103    25579.896    35723.207      346.624   0.31578624    346.30822    61649.727    54896.462            0    49530.856    184714.41    2613554.5  0.033274546    75441.831 
  480000     6705          400     61190.45    25573.791    35616.659      346.624   0.30570944     346.3183    61537.074    54783.479            0    49418.118    184229.45    2613554.5  0.033274546    75213.603 
  481000     6705          400    61058.612    25562.994    35495.619      346.624   0.30129603    346.32271    61405.236    54654.058            0     49288.97       183686    2613554.5  0.033274546    74961.272 
  482000     6705          400    60953.094    25555.547    35397.547      346.624   0.27972897    346.34428    61299.718    54550.916            0    49186.524    183223.79    2613554.5  0.033274546    74742.612 
  483000     6705          400    60843.981    25540.078    35303.903      346.624   0.26647585    346.35753    61190.605    54440.555            0    49076.303    182695.03    2613554.5  0.033274546    74485.355 
  484000     6705          400    60704.959    25527.279     35177.68      346.624   0.30028829    346.32372    61051.583    54312.857            0    48945.832    182167.05    2613554.5  0.033274546    74246.913 
  485000     6705          400    60553.524    25503.753    35049.771      346.624   0.26666119    346.35734    60900.148    54182.325            0     48811.76    181621.67    2613554.5  0.033274546    74005.415 
  486000     6705          400    60413.862    25475.917    34937.946      346.624   0.25360654     346.3704    60760.486    54067.527            0    48693.935    181146.31    2613554.5  0.033274546    73799.624 
  487000     6705          400    60320.406    25450.951    34869.455      346.624   0.21527911    346.40873     60667.03    53993.966            0    48617.688     180743.5    2613554.5  0.033274546    73609.983 
  488000     6705          400     60274.61    25450.267    34824.343      346.624   0.18260974     346.4414    60621.234    53962.368            0    48582.901     180543.8    2613554.5  0.033274546    73515.633 
  489000     6705          400    60167.235    25443.475     34723.76      346.624   0.18219151    346.44181    60513.859    53863.901            0    48481.969    180125.19    2613554.5  0.033274546    73324.839 
  490000     6705          400    60048.222    25431.996    34616.227      346.624   0.20046646    346.42354    60394.846    53757.129            0    48373.746    179686.54    2613554.5  0.033274546    73128.892 
  491000     6705          400    59924.968    25417.357    34507.611      346.624   0.16689059    346.45711    60271.592    53639.629            0    48256.429    179202.29    2613554.5  0.033274546    72907.597 
  492000     6705          400    59813.005    25410.213    34402.791      346.624   0.17855485    346.44545    60159.629    53526.616            0    48144.274    178806.67    2613554.5  0.033274546    72733.704 
  493000     6705          400    59703.218    25393.369    34309.849      346.624   0.19386307    346.43014    60049.842    53421.561            0    48039.349    178347.64    2613554.5  0.033274546    72519.611 
  494000     6705          400     59570.47    25369.827    34200.643      346.624    0.2016596    346.42235    59917.094    53295.842            0    47913.437    177789.37    2613554.5  0.033274546    72258.753 
  495000     6705          400    59488.074     25355.46    34132.614      346.624   0.16964237    346.45436    59834.698    53226.313            0    47842.011    177490.71    2613554.5  0.033274546    72126.181 
  496000     6705          400    59404.305    25342.957    34061.349      346.624   0.18547167    346.43853    59750.929    53156.732            0    47771.315     177173.3    2613554.5  0.033274546    71982.949 
  497000     6705          400    59324.723      25334.9    33989.824      346.624   0.16583458    346.45817    59671.347    53088.075            0    47701.014    176871.15    2613554.5  0.033274546    71846.512 
  498000     6705          400     59226.87    25342.985    33883.885      346.624   0.18440353     346.4396    59573.494    52994.696            0    47604.973    176600.82    2613554.5  0.033274546    71740.776 
  499000     6705          400    59116.554    25348.318    33768.236      346.624   0.15069742    346.47331    59463.178    52882.296            0    47492.006    176240.84    2613554.5  0.033274546    71587.725 
  500000     6705          400    58991.236    25344.602    33646.634      346.624   0.13505751    346.48895     59337.86    52749.104            0    47358.339    175760.82    2613554.5  0.033274546    71370.284 
Loop time of 99883.7 on 1 procs for 500000 steps with 6705 atoms

Performance: 0.004 ns/day, 5549.093 hours/ns, 5.006 timesteps/s
99.8% CPU use with 1 MPI tasks x no OpenMP threads

MPI task timing breakdown:
Section |  min time  |  avg time  |  max time  |%varavg| %total
---------------------------------------------------------------
Pair    | 90579      | 90579      | 90579      |   0.0 | 90.68
Bond    | 185.36     | 185.36     | 185.36     |   0.0 |  0.19
Kspace  | 8579.5     | 8579.5     | 8579.5     |   0.0 |  8.59
Neigh   | 116.17     | 116.17     | 116.17     |   0.0 |  0.12
Comm    | 0.97084    | 0.97084    | 0.97084    |   0.0 |  0.00
Output  | 233.24     | 233.24     | 233.24     |   0.0 |  0.23
Modify  | 179.96     | 179.96     | 179.96     |   0.0 |  0.18
Other   |            | 9.654      |            |       |  0.01

Nlocal:    6705 ave 6705 max 6705 min
Histogram: 1 0 0 0 0 0 0 0 0 0
Nghost:    144 ave 144 max 144 min
Histogram: 1 0 0 0 0 0 0 0 0 0
Neighs:    468835 ave 468835 max 468835 min
Histogram: 1 0 0 0 0 0 0 0 0 0
FullNghs:  1.14743e+06 ave 1.14743e+06 max 1.14743e+06 min
Histogram: 1 0 0 0 0 0 0 0 0 0

Total # of neighbors = 1147428
Ave neighs/atom = 171.13
Ave special neighs/atom = 6.5393
Neighbor list builds = 2302
Dangerous builds = 1

print "Selesai"
Selesai
# End #
Total wall time: 27:45:10
