LAMMPS (20 Nov 2019)
# Nanodroplet of water on the graphene nanoribbon #

# ------------------------ INITIALIZATION ----------------------------
echo			both
units			metal
boundary		p p p
atom_style		full
bond_style		harmonic
angle_style		harmonic
dimension		3
neighbor		0.3 bin

# ----------------------- ATOM DEFINITION ----------------------------
read_data pos1.data
  orthogonal box = (-36.5268 -10.3138 -46.4164) to (84.4197 110.992 130.921)
  1 by 1 by 1 MPI processor grid
  reading atoms ...
  6705 atoms
  scanning bonds ...
  2 = max bonds/atom
  scanning angles ...
  3 = max angles/atom
  reading bonds ...
  6081 bonds
  reading angles ...
  7337 angles
  3 = max # of 1-2 neighbors
  6 = max # of 1-3 neighbors
  18 = max # of 1-4 neighbors
  18 = max # of special neighbors
  special bonds CPU = 0.00182797 secs
  read_data CPU = 0.0127464 secs

# ------------------------ FORCE FIELDS ------------------------------
pair_style hybrid airebo 2.5 0 3 lj/cut/tip4p/long 1 2 1 1 0.1250 9 8
pair_coeff * * lj/cut/tip4p/long 0.0 0.0
pair_coeff 1 2 lj/cut/tip4p/long 0.0 0.0
pair_coeff 2 2 lj/cut/tip4p/long 0.0 0.0
pair_coeff 2 3 lj/cut/tip4p/long 0.0032399 3.19
pair_coeff 1 1 lj/cut/tip4p/long 0.16275 3.16435 # O-O (water TIP4P/2005)
pair_coeff 1 3 lj/cut/tip4p/long 0.0032399 3.19 # O-C (amber)
pair_coeff * * airebo CH.airebo C H NULL
Reading potential file CH.airebo with DATE: 2011-10-25
kspace_style	pppm/tip4p 1.0e-4


#bond_coeff 1 0.0 0.9572 # TIP4P/epsilon
bond_coeff 1 600.0  0.9572 # TIP4P/epsilon
bond_coeff 2 610.0 1.42 # GROMOS53A6

#angle_coeff 1 2.6018473 104.52 # TIP4P/epsilon
angle_coeff 1 75.0 104.52 # TIP4P/epsilon
angle_coeff  2 90.0 120.0 # GROMOS53A6

# Grouping #
group g_C type 3
2016 atoms in group g_C
group g_O type 1
1563 atoms in group g_O
group g_H type 2
3126 atoms in group g_H
group g_W union g_O g_H
4689 atoms in group g_W

compute 3 all pe/atom
compute 4 all stress/atom NULL virial

fix npt all npt temp 300 300 .5 x 0.0 0.0 .5 y 0.0 0.0 .5
fix bp all balance 1000 1 shift z 10 1

thermo_style custom step temp ke pe press vol
timestep 0.00001
run 500
PPPM initialization ...
  extracting TIP4P info from pair style
  using 12-bit tables for long-range coulomb (src/kspace.cpp:323)
  G vector (1/distance) = 0.284733
  grid = 54 54 72
  stencil order = 5
  estimated absolute RMS force accuracy = 0.00156748
  estimated relative force accuracy = 0.000108856
  using double precision FFTW3
  3d grid and FFT values/proc = 268037 209952
WARNING: Using a manybody potential with bonds/angles/dihedrals and special_bond exclusions (src/pair.cpp:226)
Neighbor list info ...
  update every 1 steps, delay 10 steps, check yes
  max neighbors/atom: 2000, page size: 100000
  master list distance cutoff = 9.3
  ghost atom cutoff = 9.3
  binsize = 4.65, bins = 27 27 39
  4 neighbor lists, perpetual/occasional/extra = 4 0 0
  (1) pair airebo, perpetual, skip from (3)
      attributes: full, newton on, ghost
      pair build: skip/ghost
      stencil: none
      bin: none
  (2) pair lj/cut/tip4p/long, perpetual, skip from (4)
      attributes: half, newton on
      pair build: skip
      stencil: none
      bin: none
  (3) neighbor class addition, perpetual
      attributes: full, newton on, ghost
      pair build: full/bin/ghost
      stencil: full/ghost/bin/3d
      bin: standard
  (4) neighbor class addition, perpetual
      attributes: half, newton on
      pair build: half/bin/newton
      stencil: half/bin/3d/newton
      bin: standard
Per MPI rank memory allocation (min/avg/max) = 60.68 | 60.68 | 60.68 Mbytes
Step Temp KinEng PotEng Press Volume 
       0            0            0    1068043.8   -489428.23    2601803.1 
     500    1012618.3    877494.57     148384.8    259622.74    2615990.3 
Loop time of 25.9374 on 1 procs for 500 steps with 6705 atoms

Performance: 0.017 ns/day, 1440.969 hours/ns, 19.277 timesteps/s
100.0% CPU use with 1 MPI tasks x no OpenMP threads

MPI task timing breakdown:
Section |  min time  |  avg time  |  max time  |%varavg| %total
---------------------------------------------------------------
Pair    | 7.5398     | 7.5398     | 7.5398     |   0.0 | 29.07
Bond    | 0.22371    | 0.22371    | 0.22371    |   0.0 |  0.86
Kspace  | 8.4547     | 8.4547     | 8.4547     |   0.0 | 32.60
Neigh   | 1.3266     | 1.3266     | 1.3266     |   0.0 |  5.11
Comm    | 0.003755   | 0.003755   | 0.003755   |   0.0 |  0.01
Output  | 4.4725e-05 | 4.4725e-05 | 4.4725e-05 |   0.0 |  0.00
Modify  | 8.382      | 8.382      | 8.382      |   0.0 | 32.32
Other   |            | 0.006853   |            |       |  0.03

Nlocal:    6705 ave 6705 max 6705 min
Histogram: 1 0 0 0 0 0 0 0 0 0
Nghost:    0 ave 0 max 0 min
Histogram: 1 0 0 0 0 0 0 0 0 0
Neighs:    91775 ave 91775 max 91775 min
Histogram: 1 0 0 0 0 0 0 0 0 0
FullNghs:  520942 ave 520942 max 520942 min
Histogram: 1 0 0 0 0 0 0 0 0 0

Total # of neighbors = 520942
Ave neighs/atom = 77.6946
Ave special neighs/atom = 6.5393
Neighbor list builds = 50
Dangerous builds = 50

#group g_fix region r_fix
variable frc equal 2e-4 # force to be applied to the water molecule
variable ymn equal ylo+20
variable ymx equal yhi-20
variable xmn equal xlo+20
variable xmx equal xhi-20
region middle block ${xmn} ${xmx} ${ymn} ${ymx} -5 5 units box
region middle block -16.7146647628567 ${xmx} ${ymn} ${ymx} -5 5 units box
region middle block -16.7146647628567 64.6076017628568 ${ymn} ${ymx} -5 5 units box
region middle block -16.7146647628567 64.6076017628568 9.544366837464 ${ymx} -5 5 units box
region middle block -16.7146647628567 64.6076017628568 9.544366837464 91.133634162536 -5 5 units box
group middle region middle
1596 atoms in group middle
unfix npt

newton on

change_box all boundary p p p

reset_timestep 0
velocity middle set NULL NULL -20.0 sum no units box
velocity g_O set 0.0 0.0 -20.0 sum yes units box
velocity g_H set 0.0 0.0 -20.0 sum yes units box
#fix	eva g_W evaporate 10000 20 middle 38277 molecule yes
fix grav g_W gravity 5.0 vector 0 0 -20
fix kick g_W addforce ${frc} 0.0 0.0
fix kick g_W addforce 0.0002 0.0 0.0
timestep 0.00001

fix fxlan g_W langevin 300.0 300.0 100.0 48279
fix 1 all nve
fix 3 all temp/rescale 1 300.0 300.0 0.0 1.0

fix 		mysf1 g_C setforce 0.0 NULL 0.0
velocity	g_C set NULL NULL 0

compute myack all ackland/atom
compute myke all ke/atom
compute mype all pe/atom
compute Ek_Graphene g_C reduce sum c_myke
compute Ek_Water g_W reduce sum c_myke
compute Ep_Graphene g_C reduce sum c_mype
compute Ep_Water g_W reduce sum c_mype

compute gofr all rdf 1000  1 1  2 2  1 2  # O-O, H-H, O-H
compute gfr all rdf 1000  1 3  3 3  2 3  # O-O, H-H, O-H
fix rdf all ave/time 100 10 1000 c_gofr[*] file spce-rdfgo.dat mode vector
fix rdf all ave/time 100 10 1000 c_gfr[*] file spce-rdfg.dat mode vector

dump mydump1 all atom 10 dump.Graphene3drop300K.dump

thermo 1000
thermo_style custom step atoms temp pe c_Ep_Graphene c_Ep_Water ke c_Ek_Graphene c_Ek_Water etotal evdwl ecoul epair enthalpy vol density press
thermo_modify lost ignore flush yes
run 	500000
PPPM initialization ...
  extracting TIP4P info from pair style
  using 12-bit tables for long-range coulomb (src/kspace.cpp:323)
  G vector (1/distance) = 0.28454
  grid = 54 54 72
  stencil order = 5
  estimated absolute RMS force accuracy = 0.0015743
  estimated relative force accuracy = 0.000109329
  using double precision FFTW3
  3d grid and FFT values/proc = 268037 209952
WARNING: Using a manybody potential with bonds/angles/dihedrals and special_bond exclusions (src/pair.cpp:226)
Neighbor list info ...
  update every 1 steps, delay 10 steps, check yes
  max neighbors/atom: 2000, page size: 100000
  master list distance cutoff = 9.3
  ghost atom cutoff = 9.3
  binsize = 4.65, bins = 27 27 39
  7 neighbor lists, perpetual/occasional/extra = 4 3 0
  (1) pair airebo, perpetual, skip from (6)
      attributes: full, newton on, ghost
      pair build: skip/ghost
      stencil: none
      bin: none
  (2) pair lj/cut/tip4p/long, perpetual, skip from (7)
      attributes: half, newton on
      pair build: skip
      stencil: none
      bin: none
  (3) compute ackland/atom, occasional, copy from (6)
      attributes: full, newton on
      pair build: copy
      stencil: none
      bin: none
  (4) compute rdf, occasional, copy from (7)
      attributes: half, newton on
      pair build: copy
      stencil: none
      bin: none
  (5) compute rdf, occasional, copy from (7)
      attributes: half, newton on
      pair build: copy
      stencil: none
      bin: none
  (6) neighbor class addition, perpetual
      attributes: full, newton on, ghost
      pair build: full/bin/ghost
      stencil: full/ghost/bin/3d
      bin: standard
  (7) neighbor class addition, perpetual
      attributes: half, newton on
      pair build: half/bin/newton
      stencil: half/bin/3d/newton
      bin: standard
Per MPI rank memory allocation (min/avg/max) = 62.53 | 62.53 | 62.53 Mbytes
Step Atoms Temp PotEng c_Ep_Graphene c_Ep_Water KinEng c_Ek_Graphene c_Ek_Water TotEng E_vdwl E_coul E_pair Enthalpy Volume Density Press 
       0     6705    1013291.9    148388.75    8.4413507    148380.31    878078.24   0.90393636    878077.33      1026467   -8468.0353            0   -14377.935    1450761.1    2615990.3  0.033243562     259861.1 
    1000     6705          300   -16898.615     8.178606   -16906.794      259.968 0.0044029827     259.9636   -16638.647   -11222.767            0   -17141.952   -23742.808    2615990.3  0.033243562    -4350.979 
    2000     6705          300   -17329.187    7.9629808    -17337.15      259.968 0.0020054249      259.966   -17069.219   -11655.638            0   -17575.254   -24638.179    2615990.3  0.033243562   -4635.6476 
    3000     6705          300    -17505.24    7.8462048   -17513.087      259.968 0.0012699394    259.96673   -17245.272   -11833.352            0   -17753.481   -24892.687    2615990.3  0.033243562   -4683.6974 
    4000     6705          300   -17626.728    7.7656875   -17634.493      259.968 0.00093643214    259.96707    -17366.76   -11957.566            0   -17878.234   -25036.981    2615990.3  0.033243562   -4697.6656 
    5000     6705          300   -17705.969    7.7030248   -17713.672      259.968 0.00075916979    259.96724   -17446.001   -12037.496            0   -17958.667   -25095.689    2615990.3  0.033243562   -4685.0902 
    6000     6705          300   -17763.181    7.6508054   -17770.832      259.968 0.00064423115    259.96736   -17503.213   -12095.561            0   -18017.177    -25141.81    2615990.3  0.033243562   -4678.2977 
    7000     6705          300   -17816.764    7.6054739    -17824.37      259.968 0.00056503079    259.96744   -17556.796   -12149.892            0   -18071.911   -25182.607    2615990.3  0.033243562   -4670.4662 
    8000     6705          300   -17865.637    7.5649164   -17873.202      259.968 0.00050726852     259.9675   -17605.669   -12198.851            0   -18121.307   -25205.991    2615990.3  0.033243562   -4654.8558 
    9000     6705          300    -17921.62    7.5279281   -17929.148      259.968 0.00046274093    259.96754   -17661.652   -12255.417            0   -18178.207   -25246.654    2615990.3  0.033243562   -4645.4725 
   10000     6705          300   -17959.978    7.4935098   -17967.471      259.968 0.00042802911    259.96758    -17700.01   -12294.082            0   -18217.186   -25253.988    2615990.3  0.033243562    -4626.472 
   11000     6705          300   -17990.123     7.461291   -17997.584      259.968 0.00039942379     259.9676   -17730.155   -12324.467            0   -18247.901   -25259.348    2615990.3  0.033243562   -4611.2925 
   12000     6705          300   -18018.419    7.4307533    -18025.85      259.968 0.00037551024    259.96763   -17758.451   -12353.093            0   -18276.832   -25271.561    2615990.3  0.033243562   -4601.4422 
   13000     6705          300    -18049.25    7.4016816   -18056.651      259.968 0.00035519009    259.96765   -17789.282   -12384.367            0    -18308.38   -25296.447    2615990.3  0.033243562   -4597.8013 
   14000     6705          300   -18080.937    7.3737182   -18088.311      259.968 0.00033774103    259.96767   -17820.969   -12417.089            0   -18341.357   -25321.096    2615990.3  0.033243562   -4593.4905 
   15000     6705          300    -18114.87      7.34662   -18122.216      259.968 0.00032257704    259.96768   -17854.902   -12451.576            0     -18376.1   -25337.257    2615990.3  0.033243562   -4582.6061 
   16000     6705          300   -18142.651    7.3200035   -18149.971      259.968 0.0003092797    259.96769   -17882.683   -12479.351            0   -18404.151   -25343.393    2615990.3  0.033243562   -4569.3497 
   17000     6705          300    -18167.12    7.2938925   -18174.414      259.968 0.00029741172    259.96771   -17907.152   -12503.621            0   -18428.701   -25351.172    2615990.3  0.033243562   -4559.1274 
   18000     6705          300   -18189.707    7.2681591   -18196.975      259.968 0.00028674046    259.96772   -17929.739   -12525.903            0    -18451.26   -25362.362    2615990.3  0.033243562   -4552.1472 
   19000     6705          300   -18212.651     7.242672   -18219.893      259.968 0.00027712673    259.96773   -17952.683   -12548.441            0   -18474.073   -25371.004    2615990.3  0.033243562   -4543.3885 
   20000     6705          300   -18232.672    7.2170691   -18239.889      259.968 0.00026843831    259.96774   -17972.704   -12568.139            0   -18494.048   -25371.519    2615990.3  0.033243562    -4531.442 
   21000     6705          300   -18250.584    7.1913348   -18257.775      259.968 0.00026047083    259.96774   -17990.616   -12585.784            0   -18511.972   -25367.028    2615990.3  0.033243562   -4517.7209 
   22000     6705          300   -18267.501     7.165266   -18274.666      259.968 0.00025315429    259.96775   -18007.533   -12602.433            0   -18528.897   -25363.488    2615990.3  0.033243562    -4505.192 
   23000     6705          300   -18283.385    7.1389312   -18290.524      259.968 0.00024641463    259.96776   -18023.417   -12618.044            0   -18544.772   -25360.027    2615990.3  0.033243562   -4493.3438 
   24000     6705          300   -18298.371    7.1123168   -18305.483      259.968 0.00024016214    259.96776   -18038.403   -12632.771            0   -18559.748   -25355.662    2615990.3  0.033243562   -4481.4921 
   25000     6705          300   -18312.804    7.0850999   -18319.889      259.968 0.00023436219    259.96777   -18052.836   -12646.964            0   -18574.177   -25350.211    2615990.3  0.033243562   -4469.3142 
   26000     6705          300   -18327.122    7.0575204    -18334.18      259.968 0.00022894325    259.96777   -18067.154   -12661.135            0   -18588.573   -25347.975    2615990.3  0.033243562   -4459.1752 
   27000     6705          300   -18340.516    7.0300812   -18347.546      259.968 0.00022391141    259.96778   -18080.548   -12674.491            0    -18602.14   -25341.628    2615990.3  0.033243562    -4447.085 
   28000     6705          300   -18352.941    7.0031449   -18359.945      259.968 0.00021917093    259.96778   -18092.973   -12686.833            0   -18614.675   -25331.602    2615990.3  0.033243562   -4433.3346 
   29000     6705          300   -18364.182      6.97835    -18371.16      259.968 0.00021473328    259.96779   -18104.214   -12697.905            0   -18625.922   -25317.361    2615990.3  0.033243562    -4417.728 
   30000     6705          300   -18374.168    6.9589859   -18381.127      259.968 0.00021054364    259.96779     -18114.2   -12707.703            0    -18635.88   -25304.255    2615990.3  0.033243562   -4403.5854 
   31000     6705          300   -18383.076    6.9501129   -18390.026      259.968 0.00020658231     259.9678   -18123.108    -12716.43            0   -18644.758   -25293.236    2615990.3  0.033243562   -4391.3816 
   32000     6705          300   -18391.016    6.9631101   -18397.979      259.968 0.00020284311     259.9678   -18131.048   -12724.203            0   -18652.673   -25283.768    2615990.3  0.033243562   -4380.7195 
   33000     6705          300   -18398.224    7.0182548   -18405.243      259.968 0.00019931628     259.9678   -18138.256   -12731.261            0   -18659.872   -25274.556    2615990.3  0.033243562   -4370.6628 
   34000     6705          300   -18404.747    7.1573827   -18411.904      259.968 0.00019603353    259.96781   -18144.779   -12737.639            0   -18666.389    -25264.55    2615990.3  0.033243562   -4360.5399 
   35000     6705          300   -18410.516    7.4588213   -18417.975      259.968 0.0001932268    259.96781   -18150.548   -12743.262            0    -18672.15   -25252.986    2615990.3  0.033243562   -4349.9245 
   36000     6705          300   -18415.333    8.0680238   -18423.401      259.968 0.0001919323    259.96781   -18155.365   -12747.959            0   -18676.984   -25239.055    2615990.3  0.033243562   -4338.4416 
   37000     6705          300   -18418.847    9.2165282   -18428.063      259.968 0.00019595527    259.96781   -18158.879   -12751.353            0   -18680.514   -25218.981    2615990.3  0.033243562   -4323.9951 
   38000     6705          300   -18420.501    11.166053   -18431.667      259.968 0.00021432009    259.96779   -18160.533   -12752.908            0   -18682.201    -25191.27    2615990.3  0.033243562   -4306.0105 
   39000     6705          300   -18420.155    13.980533   -18434.136      259.968 0.00025339063    259.96775   -18160.187   -12752.465            0   -18681.885   -25155.224    2615990.3  0.033243562   -4284.1459 
   40000     6705          300   -18418.372    17.316136   -18435.688      259.968 0.00030082456     259.9677   -18158.404   -12750.594            0   -18680.133   -25114.567    2615990.3  0.033243562   -4260.3372 
   41000     6705          300   -18415.894    20.684047   -18436.578      259.968 0.00034572085    259.96766   -18155.926    -12748.05            0   -18677.701   -25072.018    2615990.3  0.033243562   -4235.7953 
   42000     6705          300   -18413.006    23.897099   -18436.903      259.968 0.00039891545     259.9676   -18153.038   -12745.081            0   -18674.831   -25029.954    2615990.3  0.033243562   -4211.8018 
   43000     6705          300   -18409.989    27.058884   -18437.048      259.968 0.0004856668    259.96752   -18150.021   -12742.082            0   -18671.922   -24991.118    2615990.3  0.033243562   -4189.8642 
   44000     6705          300   -18408.599    29.625831   -18438.225      259.968 0.00060224115     259.9674   -18148.631   -12740.718            0   -18670.635   -24960.906    2615990.3  0.033243562   -4172.2118 
   45000     6705          300   -18409.473    31.243794   -18440.717      259.968 0.00071767397    259.96729   -18149.505   -12741.569            0   -18671.553   -24941.876    2615990.3  0.033243562   -4160.0219 
   46000     6705          300   -18414.729    31.827305   -18446.557      259.968 0.00079679201    259.96721   -18154.761   -12746.791            0   -18676.833   -24946.756    2615990.3  0.033243562   -4159.7914 
   47000     6705          300   -18418.918     32.92742   -18451.846      259.968 0.00085237323    259.96715    -18158.95   -12751.207            0   -18681.305   -24931.693    2615990.3  0.033243562   -4148.0002 
   48000     6705          300   -18419.168    34.909535   -18454.078      259.968 0.00089996155     259.9671     -18159.2   -12751.444            0   -18681.598   -24909.515    2615990.3  0.033243562   -4134.2643 
   49000     6705          300    -18419.19    36.779344    -18455.97      259.968 0.00091342663    259.96709   -18159.222   -12751.446            0   -18681.662   -24886.899    2615990.3  0.033243562   -4120.3999 
   50000     6705          300   -18418.838    38.490444   -18457.329      259.968 0.00089322531    259.96711    -18158.87   -12751.086            0   -18681.367   -24864.679    2615990.3  0.033243562   -4107.0061 
   51000     6705          300   -18416.302    40.518376   -18456.821      259.968 0.00086778361    259.96714   -18156.334   -12748.528            0   -18678.884   -24834.008    2615990.3  0.033243562   -4089.7753 
   52000     6705          300   -18411.442    43.001594   -18454.444      259.968 0.00086965759    259.96713   -18151.474   -12743.629            0   -18674.065    -24794.27    2615990.3  0.033243562   -4068.4137 
   53000     6705          300   -18405.161    45.901543   -18451.063      259.968 0.0009129298    259.96709   -18145.193    -12737.38            0     -18667.9   -24751.019    2615990.3  0.033243562   -4045.7716 
   54000     6705          300   -18400.041    49.001058   -18449.042      259.968 0.0009985529    259.96701   -18140.073   -12732.141            0    -18662.75   -24708.438    2615990.3  0.033243562   -4022.8279 
   55000     6705          300   -18395.015    52.266985   -18447.282      259.968 0.0011025664     259.9669   -18135.047   -12727.193            0   -18657.894   -24675.092    2615990.3  0.033243562    -4005.483 
   56000     6705          300   -18390.673     55.68321   -18446.356      259.968 0.0011700054    259.96683   -18130.705   -12723.114            0   -18653.908   -24640.992    2615990.3  0.033243562    -3987.258 
   57000     6705          300   -18386.451    59.658582   -18446.109      259.968 0.0011692813    259.96683   -18126.483   -12719.012            0   -18649.891   -24597.293    2615990.3  0.033243562   -3963.0802 
   58000     6705          300     -18378.5    65.049589    -18443.55      259.968 0.0011770653    259.96683   -18118.532    -12711.14            0   -18642.097   -24542.086    2615990.3  0.033243562   -3934.1377 
   59000     6705          300   -18366.331    72.009216    -18438.34      259.968 0.0012023516     259.9668   -18106.363   -12699.034            0   -18630.058   -24465.004    2615990.3  0.033243562   -3894.3823 
   60000     6705          300   -18351.625    80.195738   -18431.821      259.968 0.0011854098    259.96682   -18091.657   -12684.388            0   -18615.469   -24380.453    2615990.3  0.033243562   -3851.6049 
   61000     6705          300   -18333.741    89.831268   -18423.572      259.968 0.0011419063    259.96686   -18073.773   -12666.628            0   -18597.753   -24276.173    2615990.3  0.033243562   -3798.6912 
   62000     6705          300   -18313.407    100.47559   -18413.882      259.968 0.0011958132    259.96681   -18053.439    -12646.59            0   -18577.741   -24155.728    2615990.3  0.033243562   -3737.3776 
   63000     6705          300   -18288.598    112.69091   -18401.289      259.968 0.0013645446    259.96664    -18028.63   -12622.397            0   -18553.548   -24021.412    2615990.3  0.033243562   -3670.3099 
   64000     6705          300   -18261.574    126.15276   -18387.726      259.968 0.0013769826    259.96663   -18001.606    -12595.51            0   -18526.641   -23876.906    2615990.3  0.033243562   -3598.3573 
   65000     6705          300   -18239.278    137.83811   -18377.116      259.968 0.0013769462    259.96663    -17979.31   -12573.093            0   -18504.184   -23753.276    2615990.3  0.033243562   -3536.2945 
   66000     6705          300   -18222.884    147.09673   -18369.981      259.968  0.001438779    259.96656   -17962.916   -12556.634            0   -18487.679    -23659.93    2615990.3  0.033243562   -3489.1645 
   67000     6705          300   -18208.287    156.08534   -18364.373      259.968 0.0017154759    259.96629   -17948.319   -12542.015            0   -18473.029   -23572.695    2615990.3  0.033243562   -3444.6776 
   68000     6705          300   -18192.311    164.72485   -18357.036      259.968 0.0020570856    259.96595   -17932.343   -12525.542            0   -18456.508   -23481.565    2615990.3  0.033243562    -3398.649 
   69000     6705          300   -18173.936    174.61452   -18348.551      259.968 0.0021679528    259.96584   -17913.968   -12507.299            0   -18438.202   -23380.783    2615990.3  0.033243562   -3348.1783 
   70000     6705          300    -18149.27    188.00371   -18337.274      259.968 0.0020862502    259.96592   -17889.302    -12482.99            0   -18413.847    -23246.97    2615990.3  0.033243562   -3281.3309 
   71000     6705          300   -18118.038     204.9997   -18323.037      259.968 0.0018047184     259.9662    -17858.07   -12452.413            0   -18383.244   -23073.184    2615990.3  0.033243562    -3194.023 
   72000     6705          300   -18084.951    223.16189   -18308.113      259.968 0.0017561576    259.96625   -17824.983   -12419.613            0   -18350.429   -22885.444    2615990.3  0.033243562   -3099.3053 
   73000     6705          300   -18041.767    244.08504   -18285.852      259.968  0.002092997    259.96591   -17781.799   -12376.518            0   -18307.328    -22653.09    2615990.3  0.033243562   -2983.4471 
   74000     6705          300   -17994.059    265.95398   -18260.012      259.968 0.0025293347    259.96547   -17734.091   -12329.444            0   -18260.212   -22419.351    2615990.3  0.033243562   -2869.5116 
   75000     6705          300   -17949.648    290.45743   -18240.105      259.968 0.0030905997    259.96491    -17689.68    -12286.43            0   -18217.132   -22171.373    2615990.3  0.033243562   -2744.8353 
   76000     6705          300   -17892.906    318.43311   -18211.339      259.968 0.0036953848    259.96431   -17632.938   -12230.973            0   -18161.601   -21872.971    2615990.3  0.033243562     -2596.83 
   77000     6705          300   -17830.851    347.96046   -18178.811      259.968 0.0042647954    259.96374   -17570.883   -12170.245            0   -18100.798   -21552.786    2615990.3  0.033243562   -2438.7368 
   78000     6705          300    -17772.44    374.22154   -18146.661      259.968 0.0044690832    259.96353   -17512.472    -12113.55            0   -18043.979   -21274.261    2615990.3  0.033243562    -2303.927 
   79000     6705          300   -17729.468    395.05643   -18124.525      259.968  0.004800081     259.9632     -17469.5   -12071.182            0   -18001.417   -21061.606    2615990.3  0.033243562   -2200.0034 
   80000     6705          300   -17686.455    415.00137   -18101.457      259.968 0.0054841658    259.96252   -17426.487   -12028.555            0   -17958.622   -20854.128    2615990.3  0.033243562   -2099.2756 
   81000     6705          300    -17638.81    436.97003    -18075.78      259.968 0.0061720083    259.96183   -17378.842   -11981.952            0   -17911.859   -20628.323    2615990.3  0.033243562   -1990.1607 
   82000     6705          300   -17584.533     460.7665     -18045.3      259.968 0.0063638846    259.96164   -17324.565   -11928.724            0   -17858.385   -20388.124    2615990.3  0.033243562   -1876.2921 
   83000     6705          300    -17534.01    484.60487   -18018.614      259.968 0.0060746685    259.96193   -17274.042   -11879.889            0   -17809.244   -20157.324    2615990.3  0.033243562   -1765.8812 
   84000     6705          300   -17485.413    509.56617   -17994.979      259.968 0.0060100675    259.96199   -17225.445   -11832.952            0   -17762.014   -19907.238    2615990.3  0.033243562   -1642.4777 
   85000     6705          300    -17425.32     537.0087   -17962.328      259.968 0.0061602613    259.96184   -17165.352    -11774.34            0   -17703.089   -19586.764    2615990.3  0.033243562   -1483.0064 
   86000     6705          300   -17357.734    565.55981   -17923.294      259.968 0.0068882727    259.96112   -17097.766   -11708.036            0   -17636.439   -19259.086    2615990.3  0.033243562   -1323.7117 
   87000     6705          300   -17287.807     595.1671   -17882.974      259.968 0.0080396483    259.95996   -17027.839   -11639.665            0   -17567.691   -18912.409    2615990.3  0.033243562   -1154.2142 
   88000     6705          300   -17217.141    625.72795   -17842.869      259.968 0.0089464992    259.95906   -16957.173   -11570.379            0    -17497.98   -18562.635    2615990.3  0.033243562   -983.27306 
   89000     6705          300   -17149.794    655.27581    -17805.07      259.968 0.0094193096    259.95858   -16889.826   -11503.989            0   -17431.033   -18202.391    2615990.3  0.033243562   -803.88704 
   90000     6705          300   -17078.707    686.78724   -17765.495      259.968  0.009573304    259.95843   -16818.739   -11433.993            0   -17360.473   -17838.744    2615990.3  0.033243562   -624.70672 
   91000     6705          300    -17012.35     716.5327   -17728.882      259.968 0.0098748461    259.95813   -16752.382   -11369.144            0   -17295.041   -17538.129    2615990.3  0.033243562   -481.23463 
   92000     6705          300   -16938.295    749.25946   -17687.554      259.968  0.011299676     259.9567   -16678.327   -11297.159            0   -17222.536   -17207.001    2615990.3  0.033243562   -323.78924 
   93000     6705          300   -16866.535    783.17666   -17649.712      259.968  0.012771514    259.95523   -16606.567   -11227.177            0   -17151.963   -16846.366    2615990.3  0.033243562   -146.86599 
   94000     6705          300   -16792.923    819.05739    -17611.98      259.968  0.013353551    259.95465   -16532.955   -11154.884            0    -17079.23   -16457.629    2615990.3  0.033243562    46.133861 
   95000     6705          300   -16709.179    855.23098    -17564.41      259.968  0.013018729    259.95498   -16449.211   -11074.139            0   -16998.216   -16077.297    2615990.3  0.033243562     227.7808 
   96000     6705          300   -16629.221    890.11517   -17519.336      259.968   0.01172688    259.95628   -16369.253   -10997.917            0   -16921.758   -15698.378    2615990.3  0.033243562    410.88096 
   97000     6705          300    -16547.06    923.27381   -17470.334      259.968  0.011000773      259.957   -16287.092   -10918.748            0   -16842.297   -15318.448    2615990.3  0.033243562    593.25107 
   98000     6705          300   -16461.206    958.07871   -17419.285      259.968  0.011613966    259.95639   -16201.238   -10835.479            0   -16758.745   -14914.849    2615990.3  0.033243562    787.85531 
   99000     6705          300   -16367.625    994.21642   -17361.842      259.968  0.012470173    259.95553   -16107.657   -10744.815            0   -16667.664   -14492.682    2615990.3  0.033243562    989.09984 
  100000     6705          300   -16270.592    1032.6037   -17303.196      259.968  0.013223857    259.95478   -16010.624   -10650.495            0   -16572.799   -14047.796    2615990.3  0.033243562    1202.1441 
  101000     6705          300   -16165.083    1071.9855   -17237.069      259.968  0.013043045    259.95496   -15905.115   -10547.176            0   -16468.912    -13582.59    2615990.3  0.033243562    1422.4426 
  102000     6705          300   -16044.639    1117.2527   -17161.892      259.968  0.013149016    259.95485   -15784.671   -10430.062            0   -16351.171   -13050.177    2615990.3  0.033243562    1674.7543 
  103000     6705          300   -15931.034    1161.6742   -17092.708      259.968  0.014112948    259.95389   -15671.066   -10319.272            0   -16239.736   -12514.735    2615990.3  0.033243562    1933.1107 
  104000     6705          300   -15833.455    1199.1767   -17032.631      259.968   0.01345195    259.95455   -15573.487   -10224.659            0   -16144.454   -12072.069    2615990.3  0.033243562    2144.4612 
  105000     6705          300   -15745.054    1231.6032   -16976.657      259.968  0.012354715    259.95565   -15485.086   -10139.502            0   -16058.589   -11681.373    2615990.3  0.033243562    2329.6034 
  106000     6705          300   -15650.394    1262.5954   -16912.989      259.968   0.01294199    259.95506   -15390.426   -10047.926            0    -15966.35   -11275.825    2615990.3  0.033243562    2520.0084 
  107000     6705          300   -15550.576    1299.2607   -16849.837      259.968  0.016880346    259.95112   -15290.608   -9952.2316            0   -15870.055   -10847.465    2615990.3  0.033243562    2721.2252 
  108000     6705          300   -15468.358    1332.1288   -16800.486      259.968  0.019308081     259.9487    -15208.39   -9873.0405            0   -15790.323   -10469.683    2615990.3  0.033243562    2902.2451 
  109000     6705          300   -15396.285     1356.355    -16752.64      259.968  0.019711036    259.94829   -15136.317   -9805.0721            0   -15721.675   -10143.886    2615990.3  0.033243562    3057.6394 
  110000     6705          300   -15294.063    1389.0666    -16683.13      259.968  0.020571607    259.94743   -15034.095   -9706.7195            0   -15622.918   -9688.1465    2615990.3  0.033243562    3274.1532 
  111000     6705          300   -15177.429    1428.1438   -16605.573      259.968  0.022477888    259.94553   -14917.461   -9593.2813            0   -15509.242   -9196.5383    2615990.3  0.033243562     3503.808 
  112000     6705          300   -15073.022    1464.4188   -16537.441      259.968  0.023765866    259.94424   -14813.054    -9490.894            0   -15406.426   -8760.0782    2615990.3  0.033243562    3707.1759 
  113000     6705          300   -14974.594    1499.6423   -16474.236      259.968  0.023507624     259.9445   -14714.626   -9396.2746            0   -15311.317   -8321.7986    2615990.3  0.033243562    3915.3195 
  114000     6705          300   -14847.858    1546.8424     -16394.7      259.968  0.024564453    259.94344    -14587.89   -9275.2864            0   -15189.797   -7766.6145    2615990.3  0.033243562    4177.7247 
  115000     6705          300   -14703.342    1598.8174    -16302.16      259.968   0.02677442    259.94123   -14443.374   -9136.4085            0   -15050.367   -7148.0144    2615990.3  0.033243562    4468.0802 
  116000     6705          300   -14572.296    1647.9048     -16220.2      259.968  0.026941802    259.94106   -14312.328   -9013.3137            0   -14926.627   -6544.5409    2615990.3  0.033243562    4757.4202 
  117000     6705          300   -14440.427    1695.2642   -16135.691      259.968  0.025721106    259.94228   -14180.459   -8887.5425            0   -14800.341   -5971.7682    2615990.3  0.033243562    5027.4541 
  118000     6705          300   -14317.521    1742.4688   -16059.989      259.968   0.02445407    259.94355   -14057.553   -8770.6093            0   -14682.937   -5425.5821    2615990.3  0.033243562    5286.6939 
  119000     6705          300    -14203.56    1783.0821   -15986.642      259.968  0.024578428    259.94343   -13943.592   -8662.7093            0   -14574.346    -4931.382    2615990.3  0.033243562    5519.5735 
  120000     6705          300   -14088.341    1821.7693    -15910.11      259.968   0.02583672    259.94217   -13828.373   -8554.9229            0    -14466.17   -4460.4116    2615990.3  0.033243562    5737.4552 
  121000     6705          300   -13967.957    1861.8472   -15829.804      259.968  0.028852293    259.93915   -13707.989   -8438.5672            0   -14349.562   -3954.8721    2615990.3  0.033243562    5973.3454 
  122000     6705          300   -13830.126    1913.5713   -15743.697      259.968  0.034663099    259.93334   -13570.158   -8306.4663            0   -14217.008   -3370.3452    2615990.3  0.033243562    6246.9269 
  123000     6705          300   -13686.358     1967.651   -15654.009      259.968  0.038475462    259.92953    -13426.39   -8170.5357            0   -14080.413   -2751.3048    2615990.3  0.033243562    6538.0098 
  124000     6705          300   -13541.523    2020.5182   -15562.041      259.968   0.04424858    259.92376   -13281.555   -8034.2968            0   -13943.532   -2124.5866    2615990.3  0.033243562    6833.1416 
  125000     6705          300   -13378.288    2081.3392   -15459.628      259.968  0.051666481    259.91634    -13118.32   -7879.8915            0   -13788.595    -1452.143    2615990.3  0.033243562    7145.0093 
  126000     6705          300   -13210.941    2146.0754   -15357.017      259.968   0.05682889    259.91117   -12950.973   -7721.2021            0   -13629.577   -781.64968    2615990.3  0.033243562    7453.1638 
  127000     6705          300   -13044.902    2208.4737   -15253.376      259.968  0.058097745    259.90991   -12784.934   -7565.7093            0   -13473.402   -125.02283    2615990.3  0.033243562    7753.6268 
  128000     6705          300   -12908.541    2258.9629   -15167.504      259.968   0.05676899    259.91123   -12648.573   -7437.3685            0   -13344.207    438.33007    2615990.3  0.033243562    8015.1399 
  129000     6705          300   -12766.529    2307.2077   -15073.736      259.968  0.053171436    259.91483   -12506.561   -7304.1364            0   -13209.964    971.48084    2615990.3  0.033243562    8254.6946 
  130000     6705          300   -12603.544    2360.5871   -14964.131      259.968  0.050682319    259.91732   -12343.576   -7153.6883            0   -13057.981    1573.8013    2615990.3  0.033243562    8523.7678 
  131000     6705          300   -12449.209    2412.2326   -14861.442      259.968  0.048794907    259.91921   -12189.241   -7006.5115            0   -12909.209    2206.7406    2615990.3  0.033243562    8816.8918 
  132000     6705          300   -12312.199    2454.9192   -14767.118      259.968  0.048328825    259.91967   -12052.231   -6875.9051            0   -12777.137    2741.2541    2615990.3  0.033243562    9060.3448 
  133000     6705          300   -12173.757    2497.4701   -14671.227      259.968  0.050614142    259.91739   -11913.789   -6744.0157            0   -12643.772    3257.6903    2615990.3  0.033243562    9291.8492 
  134000     6705          300   -12017.044    2544.3691   -14561.413      259.968  0.051258245    259.91675   -11757.076   -6594.7823            0   -12493.164    3830.4061    2615990.3  0.033243562    9546.6321 
  135000     6705          300   -11894.909    2576.4154   -14471.325      259.968  0.051007215      259.917   -11634.941   -6478.6269            0   -12375.655    4300.3586    2615990.3  0.033243562     9759.655 
  136000     6705          300   -11744.992    2621.4127   -14366.405      259.968  0.048521822    259.91948   -11485.024   -6337.5912            0   -12233.523    4930.0807    2615990.3  0.033243562    10053.514 
  137000     6705          300   -11630.016    2646.4003   -14276.417      259.968  0.046117955    259.92189   -11370.048    -6230.043            0   -12124.757    5360.3753    2615990.3  0.033243562    10246.632 
  138000     6705          300    -11494.97    2684.5569   -14179.527      259.968     0.044954    259.92305   -11235.002   -6101.0262            0    -11994.42    5951.4384    2615990.3  0.033243562    10525.922 
  139000     6705          300   -11332.906    2729.3395   -14062.245      259.968  0.046394741    259.92161   -11072.938   -5948.1869            0   -11839.986    6611.2398    2615990.3  0.033243562    10830.764 
  140000     6705          300   -11165.947    2776.1733    -13942.12      259.968  0.045620232    259.92238   -10905.979   -5790.6718            0   -11681.092    7284.8065    2615990.3  0.033243562    11141.039 
  141000     6705          300   -10999.162    2824.5791   -13823.741      259.968  0.046279211    259.92172   -10739.194   -5633.6835            0   -11523.191    7957.5741    2615990.3  0.033243562     11450.93 
  142000     6705          300   -10825.654    2878.1604   -13703.814      259.968   0.04784727    259.92016   -10565.686   -5467.9561            0       -11357    8669.0922    2615990.3  0.033243562    11780.437 
  143000     6705          300   -10635.335    2940.0354    -13575.37      259.968  0.050104965     259.9179   -10375.367   -5286.0997            0   -11174.176    9445.4501    2615990.3  0.033243562    12139.359 
  144000     6705          300   -10439.667     3002.171   -13441.838      259.968  0.051537856    259.91647   -10179.699   -5098.3808            0    -10985.33    10198.911    2615990.3  0.033243562    12480.982 
  145000     6705          300   -10266.606    3052.4585   -13319.064      259.968  0.052904006     259.9151   -10006.638   -4935.5336            0   -10821.237    10813.795    2615990.3  0.033243562    12751.579 
  146000     6705          300   -10095.136    3105.2939    -13200.43      259.968  0.057543286    259.91046   -9835.1677    -4776.522            0   -10660.419    11472.679    2615990.3  0.033243562    13050.098 
  147000     6705          300   -9899.8403    3164.2729   -13064.113      259.968  0.065846592    259.90216   -9639.8723   -4596.3531            0   -10478.515    12198.154    2615990.3  0.033243562     13374.81 
  148000     6705          300   -9693.5058    3229.0434   -12922.549      259.968  0.074219519    259.89378   -9433.5378   -4406.1449            0   -10286.799    12966.964    2615990.3  0.033243562    13719.301 
  149000     6705          300   -9498.4692    3290.9184   -12789.388      259.968  0.077736143    259.89027   -9238.5012    -4225.855            0   -10105.029    13649.975    2615990.3  0.033243562    14018.163 
  150000     6705          300   -9326.1591    3338.8911    -12665.05      259.968  0.079410101    259.88859   -9066.1911   -4063.8436            0   -9941.7326     14256.89    2615990.3  0.033243562    14284.339 
  151000     6705          300    -9145.227    3395.6927    -12540.92      259.968  0.081566423    259.88644    -8885.259   -3893.8516            0   -9770.6797     14982.13    2615990.3  0.033243562    14617.703 
  152000     6705          300   -8946.6051    3451.8791   -12398.484      259.968  0.086819357    259.88118   -8686.6371   -3709.5288            0   -9585.1976    15727.068    2615990.3  0.033243562    14952.297 
  153000     6705          300     -8739.97     3509.762   -12249.732      259.968  0.092258469    259.87575    -8480.002   -3519.8446            0   -9394.0852    16490.624    2615990.3  0.033243562    15293.386 
  154000     6705          300   -8522.9522    3562.1961   -12085.148      259.968  0.095050956    259.87295   -8262.9842   -3321.5017            0   -9194.1509     17234.01    2615990.3  0.033243562    15615.763 
  155000     6705          300   -8306.0559    3619.7417   -11925.798      259.968  0.096338655    259.87166   -8046.0879   -3126.1695            0   -8997.1581    17977.268    2615990.3  0.033243562    15938.136 
  156000     6705          300   -8113.9176    3673.0985   -11787.016      259.968  0.097107329     259.8709   -7853.9496   -2949.1844            0   -8818.1146    18641.933    2615990.3  0.033243562    16227.537 
  157000     6705          300   -7904.9814     3729.985   -11634.966      259.968   0.10448268    259.86352   -7645.0134   -2758.7385            0   -8625.4889    19386.923    2615990.3  0.033243562    16555.846 
  158000     6705          300    -7652.603    3806.4656   -11459.069      259.968   0.11642923    259.85157    -7392.635   -2527.8832            0   -8393.2031    20324.054    2615990.3  0.033243562    16975.226 
  159000     6705          300   -7383.6816    3881.0617   -11264.743      259.968    0.1231278    259.84488   -7123.7136   -2283.0445            0    -8147.079    21234.336    2615990.3  0.033243562    17368.031 
  160000     6705          300   -7154.0916    3939.1558   -11093.247      259.968   0.12744433    259.84056   -6894.1236   -2072.5713            0   -7935.2011    21996.571    2615990.3  0.033243562    17694.252 
  161000     6705          300   -6946.4931    3996.7893   -10943.282      259.968   0.12089606    259.84711   -6686.5251   -1883.8527            0   -7744.5452    22720.045    2615990.3  0.033243562    18010.203 
  162000     6705          300   -6741.6478    4055.4172   -10797.065      259.968   0.12280252     259.8452   -6481.6798   -1697.3085            0   -7556.2944    23409.672    2615990.3  0.033243562    18307.109 
  163000     6705          300   -6557.9396    4105.9206    -10663.86      259.968   0.12565388    259.84235   -6297.9716   -1530.0311            0   -7387.4867    23995.798    2615990.3  0.033243562    18553.572 
  164000     6705          300   -6405.2036    4144.8665    -10550.07      259.968   0.12709933     259.8409   -6145.2356   -1394.4175            0   -7249.9868    24487.439    2615990.3  0.033243562    18761.136 
  165000     6705          300   -6232.9056    4194.6861   -10427.592      259.968    0.1268333    259.84117   -5972.9376   -1240.5836            0   -7094.4498    25074.634    2615990.3  0.033243562    19015.242 
  166000     6705          300   -6025.9643    4249.9452   -10275.909      259.968        0.126      259.842   -5765.9963   -1052.5025            0   -6904.5896    25783.538    2615990.3  0.033243562    19322.672 
  167000     6705          300   -5807.2032    4313.1421   -10120.345      259.968   0.13050993    259.83749   -5547.2352   -853.87057            0    -6704.095    26565.769    2615990.3  0.033243562    19667.771 
  168000     6705          300   -5583.7169    4370.9151   -9954.6321      259.968    0.1369732    259.83103   -5323.7489    -650.9243            0   -6499.5855    27327.139    2615990.3  0.033243562    19997.201 
  169000     6705          300   -5374.3481    4424.2247   -9798.5728      259.968   0.14643714    259.82157   -5114.3801   -459.25692            0   -6306.5814     28037.63    2615990.3  0.033243562    20304.116 
  170000     6705          300   -5198.7702    4454.2518   -9653.0221      259.968   0.13730505     259.8307   -4938.8022   -304.07378            0   -6149.6202    28506.803    2615990.3  0.033243562     20483.93 
  171000     6705          300    -5026.728    4481.9978   -9508.7258      259.968   0.12467562    259.84333     -4766.76   -151.67615            0   -5995.5326    28917.918    2615990.3  0.033243562    20630.351 
  172000     6705          300   -4830.2755    4534.4609   -9364.7364      259.968   0.11490863    259.85309   -4570.3075    23.924007            0   -5817.8334    29610.159    2615990.3  0.033243562    20933.999 
  173000     6705          300   -4597.0736    4594.9394    -9192.013      259.968   0.11657579    259.85143   -4337.1056    236.34283            0   -5603.5081    30427.806    2615990.3  0.033243562    21291.946 
  174000     6705          300   -4360.4497    4651.1562   -9011.6059      259.968   0.11149383    259.85651   -4100.4817    454.89792            0   -5383.3113    31163.642    2615990.3  0.033243562    21597.691 
  175000     6705          300   -4154.1636    4700.2455   -8854.4091      259.968   0.10759028    259.86041   -3894.1956    647.93494            0   -5189.3516    31856.361    2615990.3  0.033243562    21895.609 
  176000     6705          300   -3957.8124    4738.4328   -8696.2452      259.968   0.10335334    259.86465   -3697.8444    826.03957            0   -5010.5155    32466.262    2615990.3  0.033243562     22148.89 
  177000     6705          300   -3782.5317    4759.6749   -8542.2066      259.968  0.098458684    259.86954   -3522.5637    996.40057            0   -4839.5161    33027.706    2615990.3  0.033243562    22385.398 
  178000     6705          300   -3583.0491    4797.6307   -8380.6798      259.968  0.090880277    259.87712   -3323.0811    1184.3879            0   -4650.4037    33687.046    2615990.3  0.033243562    22667.039 
  179000     6705          300   -3397.0381    4834.0402   -8231.0783      259.968  0.090129417    259.87787   -3137.0701    1359.1651            0   -4474.3042    34310.268    2615990.3  0.033243562    22934.811 
  180000     6705          300   -3209.6579    4865.1203   -8074.7782      259.968  0.091524509    259.87648   -2949.6899    1533.2967            0   -4298.7879    34896.237    2615990.3  0.033243562    23178.929 
  181000     6705          300   -3010.9278    4906.2571   -7917.1849      259.968  0.091385164    259.87662   -2750.9598     1719.056            0    -4112.023    35531.177    2615990.3  0.033243562    23446.088 
  182000     6705          300   -2817.3364    4950.9503   -7768.2867      259.968  0.087947319    259.88006   -2557.3684    1898.4816            0   -3931.8071    36161.141    2615990.3  0.033243562    23713.346 
  183000     6705          300   -2621.9657    4987.7446   -7609.7102      259.968  0.089316223    259.87869   -2361.9977    2079.3322            0   -3750.1055    36790.126    2615990.3  0.033243562    23978.916 
  184000     6705          300   -2469.6014    5010.9184   -7480.5198      259.968  0.091835452    259.87617   -2209.6334    2224.0228            0   -3605.1065    37281.595    2615990.3  0.033243562    24186.602 
  185000     6705          300   -2309.3162    5038.5241   -7347.8403      259.968  0.089097036    259.87891   -2049.3482    2373.5116            0   -3455.1326    37791.882    2615990.3  0.033243562    24400.963 
  186000     6705          300   -2159.6745    5064.1311   -7223.8056      259.968  0.093127216    259.87488   -1899.7064    2512.5618            0   -3315.8917    38266.787    2615990.3  0.033243562    24600.172 
  187000     6705          300   -1991.7448    5095.1529   -7086.8977      259.968   0.09617703    259.87183   -1731.7768    2667.8186            0   -3160.3098    38772.358    2615990.3  0.033243562    24806.962 
  188000     6705          300   -1814.7661     5131.591   -6946.3571      259.968  0.098113208    259.86989   -1554.7981    2830.5438            0   -2996.9876    39311.392    2615990.3  0.033243562    25028.705 
  189000     6705          300   -1629.0697     5173.378   -6802.4477      259.968   0.10140951    259.86659   -1369.1017    3000.9773            0   -2826.1146    39889.979    2615990.3  0.033243562    25269.332 
  190000     6705          300   -1469.7214    5209.1307   -6678.8521      259.968   0.10485334    259.86315   -1209.7534    3143.1004            0   -2683.8274    40340.664    2615990.3  0.033243562    25447.763 
  191000     6705          300   -1298.8593     5260.789   -6559.6483      259.968   0.10636794    259.86164   -1038.8913    3294.2553            0   -2532.3564    40909.166    2615990.3  0.033243562      25691.3 
  192000     6705          300   -1122.4477    5318.0558   -6440.5035      259.968   0.11038214    259.85762   -862.47969    3449.7794            0   -2376.5924    41514.962    2615990.3  0.033243562    25954.278 
  193000     6705          300   -962.28667    5365.5494   -6327.8361      259.968   0.11045039    259.85755   -702.31867    3587.0005            0   -2239.2352    42020.664    2615990.3  0.033243562    26165.906 
  194000     6705          300   -826.67968    5396.9392   -6223.6188      259.968   0.10869641    259.85931   -566.71167    3700.5533            0   -2125.0135    42379.157    2615990.3  0.033243562    26302.414 
  195000     6705          300   -696.43018    5436.5218    -6132.952      259.968   0.10976438    259.85824   -436.46218    3810.2802            0   -2014.1413    42773.426    2615990.3  0.033243562    26464.114 
  196000     6705          300   -587.01603    5463.8265   -6050.8426      259.968   0.10643679    259.86157   -327.04803    3906.7818            0   -1916.7324    43106.941    2615990.3  0.033243562    26601.366 
  197000     6705          300   -473.15075    5493.4018   -5966.5525      259.968   0.10428169    259.86372   -213.18274    4002.6205            0   -1820.2597    43444.939    2615990.3  0.033243562    26738.637 
  198000     6705          300   -360.84034    5528.1603   -5889.0007      259.968  0.098062298    259.86994   -100.87233    4098.7855            0   -1723.5929    43821.224    2615990.3  0.033243562     26900.31 
  199000     6705          300   -256.79939     5560.355   -5817.1544      259.968  0.092425441    259.87558    3.1686125    4187.0023            0   -1635.2072     44150.19    2615990.3  0.033243562    27038.066 
  200000     6705          300   -166.06781    5586.6176   -5752.6854      259.968   0.08894362    259.87906     93.90019    4260.6276            0   -1561.5827    44416.518    2615990.3  0.033243562    27145.611 
  201000     6705          300   -94.078594    5606.8238   -5700.9024      259.968  0.088189339    259.87981    165.88941    4317.0276            0   -1505.2645    44578.329    2615990.3  0.033243562    27200.623 
  202000     6705          300   -31.474803    5624.4819   -5655.9567      259.968  0.088173208    259.87983     228.4932    4364.2302            0   -1458.3031    44723.647    2615990.3  0.033243562    27251.282 
  203000     6705          300    43.029987    5650.1104   -5607.0804      259.968  0.088992876    259.87901    302.99799    4423.1369            0   -1399.6893    44955.622    2615990.3  0.033243562    27347.725 
  204000     6705          300    104.64472     5668.607   -5563.9622      259.968  0.089324767    259.87868    364.61272    4469.9098            0   -1352.8899    45122.688    2615990.3  0.033243562    27412.309 
  205000     6705          300    189.34151    5696.7936   -5507.4521      259.968  0.090363325    259.87764    449.30951    4539.1205            0   -1283.5573      45375.9    2615990.3  0.033243562    27515.517 
  206000     6705          300    270.85868    5727.5385   -5456.6798      259.968  0.090637127    259.87737    530.82668    4603.4845            0   -1219.1469    45610.306    2615990.3  0.033243562    27609.155 
  207000     6705          300    349.34758    5757.4337   -5408.0861      259.968  0.091506879     259.8765    609.31559    4664.5799            0   -1157.9965    45814.162    2615990.3  0.033243562    27685.937 
  208000     6705          300    406.62247    5779.7198   -5373.0973      259.968  0.091367422    259.87664    666.59047    4706.7077            0   -1115.8205    45915.955    2615990.3  0.033243562    27713.202 
  209000     6705          300    464.39743    5808.0135   -5343.6161      259.968  0.091675983    259.87633    724.36544    4748.9422            0   -1073.7811    46045.651    2615990.3  0.033243562     27757.25 
  210000     6705          300    521.45287    5834.0001   -5312.5472      259.968  0.090632988    259.87737    781.42087    4790.0484            0   -1032.6988    46157.904    2615990.3  0.033243562    27791.056 
  211000     6705          300     577.5672     5860.278   -5282.7108      259.968  0.090276222    259.87773     837.5352    4829.1611            0   -993.59314    46259.812    2615990.3  0.033243562    27819.103 
  212000     6705          300    632.25828    5886.4815   -5254.2232      259.968  0.089638639    259.87836    892.22628    4866.5928            0   -956.25635    46371.759    2615990.3  0.033243562     27854.17 
  213000     6705          300    681.06791    5911.0803   -5230.0124      259.968  0.088320682    259.87968    941.03591    4899.7773            0   -923.13768    46459.722    2615990.3  0.033243562    27878.149 
  214000     6705          300    728.72344    5934.4913   -5205.7678      259.968  0.087429418    259.88057    988.69145    4930.5419            0   -892.40412    46521.213    2615990.3  0.033243562    27886.623 
  215000     6705          300    774.80128    5958.1385   -5183.3372      259.968  0.085944498    259.88206    1034.7693    4958.4286            0   -864.41779    46584.648    2615990.3  0.033243562    27897.253 
  216000     6705          300    823.25855    5981.8198   -5158.5613      259.968  0.084572672    259.88343    1083.2266    4987.6421            0   -835.07977    46656.736    2615990.3  0.033243562    27911.726 
  217000     6705          300     875.5347    6006.5146   -5130.9799      259.968  0.084166334    259.88384    1135.5027    5019.5772            0   -802.89492    46751.083    2615990.3  0.033243562    27937.492 
  218000     6705          300    930.63318     6032.138   -5101.5049      259.968  0.084420121    259.88358    1190.6012    5057.0507            0   -765.41404    46860.171    2615990.3  0.033243562    27970.559 
  219000     6705          300    973.84739    6054.7624    -5080.915      259.968  0.083961108    259.88404    1233.8154    5083.2825            0   -738.99777    46915.633    2615990.3  0.033243562     27978.06 
  220000     6705          300    1014.3608    6078.0857    -5063.725      259.968  0.084356867    259.88365    1274.3288    5105.4045            0   -716.51607    46963.587    2615990.3  0.033243562    27982.617 
  221000     6705          300    1042.3379    6098.8913   -5056.5534      259.968  0.083594086    259.88441    1302.3059    5115.1998            0   -706.54771    46968.382    2615990.3  0.033243562    27968.419 
  222000     6705          300    1063.8716    6112.3409   -5048.4694      259.968  0.080712893    259.88729    1323.8396    5124.7102            0   -697.17211    46935.156    2615990.3  0.033243562    27934.881 
  223000     6705          300    1108.8031    6132.9079   -5024.1048      259.968  0.078748869    259.88925    1368.7711    5153.2388            0   -668.80592    47000.822    2615990.3  0.033243562     27947.58 
  224000     6705          300    1159.2677    6156.3807    -4997.113      259.968  0.077456821    259.89055    1419.2357     5188.663            0   -633.69764    47102.966    2615990.3  0.033243562    27979.231 
  225000     6705          300    1198.6965    6178.5773   -4979.8808      259.968  0.076926307    259.89108    1458.6645    5213.4453            0   -609.14561    47183.458    2615990.3  0.033243562     28004.38 
  226000     6705          300    1238.4398    6195.9752   -4957.5355      259.968  0.075553652    259.89245    1498.4078    5238.6481            0   -584.02923    47231.692    2615990.3  0.033243562    28009.581 
  227000     6705          300    1255.1123    6196.4992   -4941.3868      259.968   0.07340466     259.8946    1515.0803    5243.9912            0   -578.63632     47154.44    2615990.3  0.033243562    27952.056 
  228000     6705          300    1295.6556    6207.7689   -4912.1133      259.968  0.068257762    259.89975    1555.6236     5273.418            0   -548.87969    47230.286    2615990.3  0.033243562    27973.678 
  229000     6705          300    1347.4731    6221.7448   -4874.2717      259.968  0.066920869    259.90108    1607.4411    5314.2092            0   -507.83647    47328.412    2615990.3  0.033243562     28002.04 
  230000     6705          300    1405.3903    6239.7094    -4834.319      259.968  0.066086792    259.90192    1665.3583    5358.5548            0   -463.40626    47471.998    2615990.3  0.033243562    28054.508 
  231000     6705          300      1477.61    6260.2259   -4782.6159      259.968   0.06556527    259.90244     1737.578    5416.2248            0   -405.68342    47670.395    2615990.3  0.033243562    28131.786 
  232000     6705          300     1554.408    6282.7891   -4728.3811      259.968  0.065748958    259.90225     1814.376     5478.301            0   -343.16963    47873.658    2615990.3  0.033243562     28209.24 
  233000     6705          300    1631.1133    6309.4267   -4678.3134      259.968  0.065641292    259.90236    1891.0813    5541.1406            0   -279.60295     48062.18    2615990.3  0.033243562    28277.722 
  234000     6705          300     1711.126    6338.3477   -4627.2216      259.968  0.067400396     259.9006     1971.094    5607.0123            0   -213.13115    48275.613    2615990.3  0.033243562    28359.436 
  235000     6705          300     1759.716    6359.3455   -4599.6295      259.968  0.067353505    259.90065     2019.684    5643.2665            0   -176.56534    48353.944    2615990.3  0.033243562    28377.652 
  236000     6705          300    1808.6998    6377.4278   -4568.7281      259.968  0.065713983    259.90229    2068.6678    5682.5575            0    -137.1032    48439.792    2615990.3  0.033243562    28400.229 
  237000     6705          300    1879.0348    6396.7743   -4517.7395      259.968  0.064697128    259.90331    2139.0028    5740.1231            0   -79.082277    48576.302    2615990.3  0.033243562    28440.758 
  238000     6705          300    1958.8194    6415.4749   -4456.6555      259.968  0.062634631    259.90537    2218.7874    5806.3315            0    -12.35061    48736.263    2615990.3  0.033243562    28489.863 
  239000     6705          300    2043.3886    6436.8829   -4393.4943      259.968  0.061748601    259.90626    2303.3566      5878.67            0    60.338338    48932.971    2615990.3  0.033243562    28558.543 
  240000     6705          300    2116.5756    6457.9915   -4341.4159      259.968  0.062386495    259.90562    2376.5436    5939.8126            0    122.09581    49102.332    2615990.3  0.033243562    28617.445 
  241000     6705          300    2182.5467    6475.3645   -4292.8178      259.968  0.063250984    259.90475    2442.5147    5996.5372            0    179.42178      49254.7    2615990.3  0.033243562    28670.359 
  242000     6705          300      2263.07    6493.3039   -4230.2339      259.968  0.062938116    259.90507    2523.0381    6066.9676            0    250.23858    49443.084    2615990.3  0.033243562    28736.419 
  243000     6705          300    2350.7956     6513.631   -4162.8354      259.968  0.060668659    259.90733    2610.7636    6144.4063            0    328.07354    49652.356    2615990.3  0.033243562    28810.861 
  244000     6705          300    2450.5044    6539.3029   -4088.7985      259.968  0.059179785    259.90882    2710.4724    6234.7352            0    419.04774    49940.304    2615990.3  0.033243562    28926.149 
  245000     6705          300    2562.2402    6567.7725   -4005.5323      259.968  0.059267649    259.90874    2822.2082    6334.0135            0    519.31594    50245.619    2615990.3  0.033243562    29044.707 
  246000     6705          300      2649.32    6591.9277   -3942.6077      259.968   0.05830759     259.9097     2909.288    6411.1802            0    598.00957    50497.909    2615990.3  0.033243562    29145.892 
  247000     6705          300    2729.3521    6612.9477   -3883.5956      259.968  0.057777066    259.91023    2989.3201    6480.1182            0    669.13531    50714.697    2615990.3  0.033243562    29229.648 
  248000     6705          300    2796.5103    6615.2356   -3818.7253      259.968  0.059102399     259.9089    3056.4783    6537.0619            0    728.22373    50856.716    2615990.3  0.033243562    29275.497 
  249000     6705          300     2901.091    6635.3242   -3734.2331      259.968  0.059549267    259.90845     3161.059    6629.6758            0    823.23393    51183.589    2615990.3  0.033243562    29411.641 
  250000     6705          300    3016.9187    6661.6173   -3644.6986      259.968  0.060563259    259.90744    3276.8867    6739.1162            0    934.24715    51577.838    2615990.3  0.033243562    29582.161 
  251000     6705          300    3179.6782     6691.397   -3511.7188      259.968  0.062311389    259.90569    3439.6462     6890.955            0    1087.0262     52089.23    2615990.3  0.033243562    29795.683 
  252000     6705          300    3363.0341    6731.2626   -3368.2286      259.968  0.064485294    259.90352    3623.0021    7061.7834            0    1259.6753    52663.028    2615990.3  0.033243562    30034.811 
  253000     6705          300    3560.5486    6774.2094   -3213.6608      259.968  0.065857506    259.90215    3820.5166    7243.3337            0    1443.0567    53268.168    2615990.3  0.033243562    30284.464 
  254000     6705          300    3750.1407    6819.4917    -3069.351      259.968  0.068698627     259.8993    4010.1087    7415.2401            0    1616.2268    53854.963    2615990.3  0.033243562    30527.733 
  255000     6705          300    3968.2148    6874.0486   -2905.8337      259.968  0.073087615    259.89492    4228.1828    7614.1197            0    1815.9683    54555.906    2615990.3  0.033243562    30823.468 
  256000     6705          300     4186.171    6920.5274   -2734.3564      259.968  0.077881783    259.89012     4446.139    7813.2662            0    2016.3612    55244.105    2615990.3  0.033243562    31111.471 
  257000     6705          300    4421.0718    6973.0319   -2551.9601      259.968  0.079049403    259.88895    4681.0398     8027.231            0    2231.7951    55977.958    2615990.3  0.033243562    31417.056 
  258000     6705          300    4650.5158    7026.8986   -2376.3828      259.968  0.080469298    259.88753    4910.4838     8235.476            0    2441.5448    56684.901    2615990.3  0.033243562    31709.503 
  259000     6705          300    4875.6429    7073.2052   -2197.5623      259.968  0.085102605     259.8829    5135.6109    8443.5232            0    2651.5734    57359.196    2615990.3  0.033243562    31984.598 
  260000     6705          300    5108.7484    7127.1541   -2018.4058      259.968   0.08573593    259.88227    5368.7164    8656.9749            0    2866.2107     58062.75    2615990.3  0.033243562    32272.727 
  261000     6705          300    5329.9418    7171.4966   -1841.5548      259.968  0.087947908    259.88006    5589.9098    8860.3839            0    3070.7289    58708.105    2615990.3  0.033243562    32532.507 
  262000     6705          300    5533.7481    7202.4716   -1668.7235      259.968   0.09220404     259.8758    5793.7161    9046.5908            0    3257.5811    59253.679    2615990.3  0.033243562    32741.824 
  263000     6705          300    5726.8981    7236.7863   -1509.8882      259.968    0.0829305    259.88507    5986.8661    9223.8852            0    3435.4355    59814.351    2615990.3  0.033243562    32966.915 
  264000     6705          300    5920.0704    7274.1055   -1354.0351      259.968  0.081484637    259.88652    6180.0384    9402.2997            0    3615.0783     60385.71    2615990.3  0.033243562    33198.537 
  265000     6705          300    6099.8289    7306.0345   -1206.2056      259.968   0.08171596    259.88629    6359.7969    9563.7419            0    3779.0857    60903.958    2615990.3  0.033243562    33405.847 
  266000     6705          300    6301.1033    7343.6002   -1042.4969      259.968  0.078119929    259.88988    6561.0713     9743.097            0    3961.4893    61468.059    2615990.3  0.033243562    33628.062 
  267000     6705          300    6541.2912    7382.1817   -840.89053      259.968  0.085339155    259.88266    6801.2592    9961.2315            0    4182.1289    62129.164    2615990.3  0.033243562    33885.855 
  268000     6705          300    6803.4835    7427.7773   -624.29379      259.968  0.083554231    259.88445    7063.4515    10204.941            0     4427.708    62913.582    2615990.3  0.033243562    34205.695 
  269000     6705          300     7040.635    7465.9699   -425.33484      259.968  0.081591576    259.88641    7300.6031    10426.905            0    4651.6899    63606.499    2615990.3  0.033243562     34484.83 
  270000     6705          300     7292.401    7507.1588   -214.75779      259.968  0.081055805    259.88695     7552.369     10661.17            0    4887.1207      64340.1    2615990.3  0.033243562    34779.933 
  271000     6705          300    7571.1392     7561.613    9.5262651      259.968  0.085418982    259.88258    7831.1072    10917.439            0    5143.8688    65130.836    2615990.3  0.033243562    35093.508 
  272000     6705          300    7838.5936    7614.8238    223.76984      259.968  0.086850722    259.88115    8098.5616    11160.559            0     5387.379    65907.489    2615990.3  0.033243562    35405.369 
  273000     6705          300    8106.3703      7667.43    438.94032      259.968   0.08779242    259.88021    8366.3383    11406.372            0    5634.0803    66670.379    2615990.3  0.033243562    35708.604 
  274000     6705          300    8377.9005    7721.8046    656.09592      259.968  0.090389205    259.87761    8637.8685    11656.551            0    5884.8108    67504.364    2615990.3  0.033243562    36053.082 
  275000     6705          300    8661.5427    7784.4018    877.14092      259.968  0.093624329    259.87438    8921.5107    11919.888            0    6149.1136    68390.294    2615990.3  0.033243562    36421.957 
  276000     6705          300     8972.523    7849.4571    1123.0659      259.968   0.10087398    259.86713     9232.491    12205.231            0    6435.4948    69320.592    2615990.3  0.033243562    36801.261 
  277000     6705          300    9303.4583     7902.873    1400.5853      259.968   0.10219867     259.8658    9563.4263    12509.456            0    6741.0781    70211.522    2615990.3  0.033243562    37144.232 
  278000     6705          300    9625.2925    7963.4186    1661.8739      259.968  0.099320811    259.86868    9885.2605    12803.637            0    7037.8542     71177.89    2615990.3  0.033243562     37538.98 
  279000     6705          300     9961.886     8020.695    1941.1909      259.968  0.099565421    259.86844    10221.854    13114.243            0    7351.5608    72219.447    2615990.3  0.033243562    37970.739 
  280000     6705          300    10289.131    8086.6128    2202.5186      259.968   0.10010193     259.8679    10549.099     13419.03            0    7659.5353    73272.157    2615990.3  0.033243562    38415.053 
  281000     6705          300    10589.221     8132.502    2456.7193      259.968  0.098874589    259.86913    10849.189    13701.976            0    7945.8299    74177.356    2615990.3  0.033243562    38785.656 
  282000     6705          300    10842.884    8172.6107     2670.273      259.968   0.10272842    259.86528    11102.852    13938.825            0    8188.1575    74919.226    2615990.3  0.033243562    39084.661 
  283000     6705          300    11116.749    8212.2003    2904.5487      259.968   0.10716533    259.86084    11376.717    14189.734            0    8445.1465    75674.313    2615990.3  0.033243562    39379.387 
  284000     6705          300    11418.508     8253.976    3164.5323      259.968  0.097281925    259.87072    11678.476    14471.959            0    8732.5612    76533.424    2615990.3  0.033243562     39720.74 
  285000     6705          300     11719.24    8299.8494    3419.3903      259.968  0.095177319    259.87283    11979.208    14751.104            0     9015.398    77390.644    2615990.3  0.033243562    40061.565 
  286000     6705          300    12038.209    8343.2946    3694.9148      259.968  0.096917484    259.87109    12298.177    15045.886            0    9313.3507    78309.755    2615990.3  0.033243562    40429.124 
  287000     6705          300    12370.301    8397.6643    3972.6362      259.968   0.09363657    259.87437    12630.269    15356.543            0    9627.0196    79365.208    2615990.3  0.033243562    40872.151 
  288000     6705          300    12702.666    8447.9876     4254.678      259.968   0.10064929    259.86735    12962.634    15671.355            0    9944.3323    80366.565    2615990.3  0.033243562    41281.878 
  289000     6705          300    13071.369      8506.54    4564.8294      259.968   0.11002113    259.85798    13331.337     16017.49            0    10292.369    81474.635    2615990.3  0.033243562    41734.707 
  290000     6705          300    13459.554    8566.5382    4893.0158      259.968   0.11412259    259.85388    13719.522    16379.134            0    10655.621    82646.781    2615990.3  0.033243562    42214.848 
  291000     6705          300    13833.815    8628.1473    5205.6673      259.968   0.11688456    259.85112    14093.783    16725.464            0     11002.98    83824.349    2615990.3  0.033243562    42706.838 
  292000     6705          300    14239.206    8696.3444    5542.8611      259.968   0.12771041    259.84029    14499.174    17101.894            0    11382.155    85101.488    2615990.3  0.033243562    43240.744 
  293000     6705          300    14666.611    8791.2592    5875.3515      259.968    0.1356167    259.83239    14926.579     17495.69            0    11779.364    86505.867    2615990.3  0.033243562    43839.097 
  294000     6705          300    15066.238    8867.7011    6198.5369      259.968   0.14008841    259.82792    15326.206    17869.736            0    12156.484     87791.09    2615990.3  0.033243562    44381.484 
  295000     6705          300    15450.718    8920.5891    6530.1287      259.968   0.13188361    259.83612    15710.686    18229.993            0    12520.582     88931.49    2615990.3  0.033243562    44844.451 
  296000     6705          300    15858.024    8990.0811    6867.9429      259.968   0.12985839    259.83815    16117.992    18613.039            0    12906.571    90183.428    2615990.3  0.033243562     45361.75 
  297000     6705          300    16256.435     9058.491    7197.9437      259.968   0.14234913    259.82565    16516.403    18985.115            0    13282.502    91439.319    2615990.3  0.033243562    45886.919 
  298000     6705          300    16636.335    9119.5331     7516.802      259.968   0.14275891    259.82524    16896.303    19341.528            0    13643.102    92594.888    2615990.3  0.033243562    46361.981 
  299000     6705          300    16942.942    9154.8785    7788.0639      259.968   0.14128563    259.82672     17202.91     19645.87            0    13950.025    93512.615    2615990.3  0.033243562    46736.264 
  300000     6705          300    17296.489     9199.526    8096.9633      259.968   0.16371798    259.80429    17556.457    19979.685            0    14286.314    94596.324    2615990.3  0.033243562    47183.455 
  301000     6705          300     17655.97    9263.0132    8392.9565      259.968   0.17192501    259.79608    17915.938    20312.261            0    14620.737    95702.185    2615990.3  0.033243562     47640.58 
  302000     6705          300    18077.472    9343.1322    8734.3395      259.968    0.2055193    259.76248     18337.44    20698.595            0    15007.487    96974.432    2615990.3  0.033243562    48161.623 
  303000     6705          300    18427.309    9380.7548    9046.5544      259.968   0.19865484    259.76935    18687.277    21027.067            0    15336.616    97935.038    2615990.3  0.033243562    48535.692 
  304000     6705          300    18782.926    9445.0773    9337.8491      259.968   0.18178954    259.78621    19042.894      21360.8            0     15670.99    98987.463    2615990.3  0.033243562    48962.455 
  305000     6705          300    19105.774    9512.4381    9593.3358      259.968   0.16623114    259.80177    19365.742    21661.307            0    15973.404    99997.207    2615990.3  0.033243562    49383.148 
  306000     6705          300    19444.158    9578.3303    9865.8278      259.968   0.15775425    259.81025    19704.126    21979.384            0    16293.823    101060.41    2615990.3  0.033243562    49827.068 
  307000     6705          300    19807.762    9649.3936    10158.369      259.968   0.15154515    259.81646     20067.73    22316.474            0    16633.356    102155.69    2615990.3  0.033243562    50275.183 
  308000     6705          300    20171.496    9713.2297    10458.266      259.968   0.14710898    259.82089    20431.464    22659.361            0    16978.257    103227.73    2615990.3  0.033243562    50708.993 
  309000     6705          300    20492.785    9764.6999    10728.085      259.968   0.14340049     259.8246    20752.753    22964.952            0    17286.527    104191.05    2615990.3  0.033243562    51102.206 
  310000     6705          300    20872.945    9823.9527    11048.992      259.968   0.13698037    259.83102    21132.913    23331.774            0    17656.059     105336.5    2615990.3  0.033243562    51570.909 
  311000     6705          300    21286.871    9898.3671    11388.504      259.968   0.14137614    259.82663    21546.839    23726.619            0    18053.595    106612.79    2615990.3  0.033243562    52099.072 
  312000     6705          300     21706.44    9970.9185    11735.522      259.968   0.14959879     259.8184    21966.408    24118.099            0    18447.811    107891.27    2615990.3  0.033243562    52625.113 
  313000     6705          300    22126.741    10045.487    12081.254      259.968   0.14472348    259.82328    22386.709    24512.844            0    18845.655    109160.55    2615990.3  0.033243562    53145.077 
  314000     6705          300    22504.931    10114.988    12389.943      259.968   0.16530213     259.8027    22764.899    24861.673            0    19198.628    110300.33    2615990.3  0.033243562    53611.518 
  315000     6705          300    22886.357     10183.45    12702.907      259.968   0.15827868    259.80972    23146.325    25216.008            0    19557.428    111498.52    2615990.3  0.033243562    54111.745 
  316000     6705          300    23300.385     10254.59    13045.794      259.968   0.15808023    259.80992    23560.353    25611.534            0    19956.475    112889.25    2615990.3  0.033243562    54709.937 
  317000     6705          300    23723.463    10331.152    13392.311      259.968   0.16502956    259.80297    23983.431    26003.877            0    20353.318    114158.37    2615990.3  0.033243562    55228.096 
  318000     6705          300    24124.573    10405.106    13719.467      259.968   0.17071157    259.79729    24384.541    26368.419            0    20723.194    115314.97    2615990.3  0.033243562    55690.799 
  319000     6705          300    24569.484    10494.523    14074.961      259.968   0.17986104    259.78814    24829.452     26776.63            0    21135.694    116656.23    2615990.3  0.033243562    56239.771 
  320000     6705          300    25023.743    10597.375    14426.369      259.968   0.18952757    259.77848    25283.711    27190.477            0    21552.103    118084.77    2615990.3  0.033243562    56836.476 
  321000     6705          300     25447.77    10706.344    14741.426      259.968   0.19683613    259.77117    25707.738    27571.399            0    21935.402    119488.14    2615990.3  0.033243562    57436.283 
  322000     6705          300    25901.292    10820.042     15081.25      259.968   0.20700624      259.761     26161.26    27974.401            0    22341.081    120971.19    2615990.3  0.033243562    58066.822 
  323000     6705          300    26264.776    10894.286     15370.49      259.968   0.19859092    259.76941    26524.744     28295.43            0    22664.621     122026.4    2615990.3  0.033243562    58490.472 
  324000     6705          300    26682.867    10974.931    15707.936      259.968   0.19625954    259.77174    26942.835    28676.141            0    23048.367     123294.3    2615990.3  0.033243562     59010.94 
  325000     6705          300     27147.94     11071.11     16076.83      259.968   0.20165478    259.76635    27407.908    29097.765            0    23472.845    124669.83    2615990.3  0.033243562    59568.554 
  326000     6705          300    27605.825    11176.237    16429.588      259.968   0.19843184    259.76957    27865.793    29513.709            0     23891.04    126090.87    2615990.3  0.033243562    60158.444 
  327000     6705          300    27980.653    11236.655    16743.998      259.968   0.20161446    259.76639    28240.621    29850.423            0     24231.28    127064.32    2615990.3  0.033243562    60525.076 
  328000     6705          300    28351.626    11293.026      17058.6      259.968   0.19594811    259.77206    28611.594    30184.017            0    24570.657    128026.18    2615990.3  0.033243562    60886.962 
  329000     6705          300    28702.606    11329.181    17373.425      259.968   0.18553222    259.78247    28962.574    30508.702            0     24900.38    128905.86    2615990.3  0.033243562    61210.771 
  330000     6705          300     29131.32    11393.594    17737.725      259.968   0.18374682    259.78426    29391.288    30911.008            0    25308.076    130190.65    2615990.3  0.033243562     61735.08 
  331000     6705          300    29608.041    11483.633    18124.407      259.968   0.17658495    259.79142    29868.009    31364.133            0    25768.913    131674.67    2615990.3  0.033243562    62352.006 
  332000     6705          300    30059.635    11559.093    18500.542      259.968   0.18397306    259.78403    30319.603    31789.749            0    26201.495    132996.32    2615990.3  0.033243562    62884.871 
  333000     6705          300    30483.161    11615.655    18867.506      259.968   0.18590683     259.7821    30743.129     32195.59            0    26611.728    134222.46    2615990.3  0.033243562    63376.436 
  334000     6705          300    30919.663    11699.008    19220.655      259.968   0.18551837    259.78249    31179.631    32607.625            0    27027.602    135692.23    2615990.3  0.033243562    64009.272 
  335000     6705          300    31388.956    11778.056      19610.9      259.968   0.19064687    259.77736    31648.924    33047.163            0     27470.93    137237.77    2615990.3  0.033243562    64668.422 
  336000     6705          300    31840.095    11859.393    19980.702      259.968   0.19531009    259.77269    32100.063    33464.377            0    27892.368    138645.07    2615990.3  0.033243562    65254.027 
  337000     6705          300    32288.089    11944.239     20343.85      259.968   0.21162231    259.75638    32548.057    33874.736            0    28305.573    139987.63    2615990.3  0.033243562    65801.909 
  338000     6705          300    32713.629    12028.866    20684.763      259.968   0.20796848    259.76004    32973.597    34264.458            0    28698.025     141227.1    2615990.3  0.033243562    66300.406 
  339000     6705          300    33078.219    12099.247    20978.972      259.968   0.21403887    259.75396    33338.187    34594.598            0     29031.05    142304.56    2615990.3  0.033243562    66737.004 
  340000     6705          300    33405.789    12158.476    21247.313      259.968   0.22218047    259.74582    33665.757    34891.858            0    29331.268    143278.71    2615990.3  0.033243562    67133.007 
  341000     6705          300    33793.834    12243.633    21550.201      259.968   0.22312523    259.74488    34053.802     35247.96            0    29689.309    144517.21    2615990.3  0.033243562    67653.869 
  342000     6705          300    34197.936    12338.412    21859.524      259.968   0.23453168    259.73347    34457.904    35616.534            0    30059.319    145798.75    2615990.3  0.033243562    68191.266 
  343000     6705          300    34635.466    12448.841    22186.625      259.968    0.2441354    259.72387    34895.434    36010.543            0    30454.661    147161.43    2615990.3  0.033243562    68757.876 
  344000     6705          300    34962.392    12532.011    22430.381      259.968   0.26419607    259.70381     35222.36    36305.967            0    30751.454    148148.68    2615990.3  0.033243562    69162.295 
  345000     6705          300    35244.017    12608.941    22635.076      259.968   0.26542785    259.70258    35503.985    36553.068            0    30999.923    148957.28    2615990.3  0.033243562    69485.046 
  346000     6705          300    35519.727    12701.208    22818.519      259.968   0.26734588    259.70066    35779.695    36782.687            0    31231.206    149763.24    2615990.3  0.033243562    69809.797 
  347000     6705          300      35773.7    12790.701    22982.999      259.968   0.25591543    259.71209    36033.668    36996.528            0    31445.194    150581.65    2615990.3  0.033243562    70155.491 
  348000     6705          300    36079.313    12886.622    23192.691      259.968   0.26524071    259.70276    36339.281    37259.884            0    31708.319    151564.73    2615990.3  0.033243562     70570.41 
  349000     6705          300    36364.839      12968.9    23395.939      259.968   0.28307292    259.68493    36624.807    37506.027            0    31953.458    152476.69    2615990.3  0.033243562    70954.072 
  350000     6705          300    36655.587    13054.664    23600.923      259.968   0.30547079    259.66253    36915.555    37752.055            0    32200.298    153355.61    2615990.3  0.033243562    71314.302 
  351000     6705          300    36873.759    13123.103    23750.656      259.968   0.31495478    259.65305    37133.727    37928.575            0    32375.923    153942.21    2615990.3  0.033243562    71539.944 
  352000     6705          300    37158.623    13210.356    23948.268      259.968   0.31653751    259.65147    37418.591    38166.443            0    32613.633    154714.98    2615990.3  0.033243562    71838.765 
  353000     6705          300    37450.293    13307.493      24142.8      259.968   0.32059982     259.6474    37710.261    38410.522            0    32857.534    155551.57    2615990.3  0.033243562    72172.507 
  354000     6705          300    37747.885     13408.14    24339.745      259.968   0.34014036    259.62786    38007.853    38658.001            0    33105.656    156417.94    2615990.3  0.033243562    72520.856 
  355000     6705          300    38005.504     13502.81    24502.694      259.968    0.3583394    259.60966    38265.472    38862.755            0    33310.771    157109.96    2615990.3  0.033243562    72786.907 
  356000     6705          300     38220.97    13590.599    24630.371      259.968   0.36930235     259.5987    38480.938    39025.628            0     33473.74    157692.07    2615990.3  0.033243562    73011.463 
  357000     6705          300    38394.197    13665.816    24728.381      259.968   0.37487389    259.59313    38654.165    39153.297            0    33602.855    158101.51    2615990.3  0.033243562    73156.132 
  358000     6705          300    38577.547    13745.677     24831.87      259.968   0.38201448    259.58599    38837.515    39288.228            0    33736.849    158543.58    2615990.3  0.033243562    73314.584 
  359000     6705          300    38766.046    13829.961    24936.085      259.968   0.39215504    259.57585    39026.014    39422.281            0    33868.761    158980.32    2615990.3  0.033243562    73466.622 
  360000     6705          300    38941.842     13916.84    25025.002      259.968   0.38783209    259.58017     39201.81    39539.627            0    33983.644    159370.67    2615990.3  0.033243562    73598.025 
  361000     6705          300     39079.43    13983.989    25095.441      259.968   0.37513891    259.59286    39339.398    39622.206            0    34064.411    159620.96    2615990.3  0.033243562    73667.053 
  362000     6705          300    39213.925    14043.774    25170.151      259.968    0.3562812    259.61172    39473.893    39707.165            0    34149.128    159844.37    2615990.3  0.033243562    73721.508 
  363000     6705          300    39356.621    14107.382    25249.239      259.968   0.34615207    259.62185    39616.589    39805.798            0    34246.767    160107.82    2615990.3  0.033243562    73795.465 
  364000     6705          300    39467.475    14165.294    25302.181      259.968   0.33231825    259.63569    39727.443    39873.578            0    34313.939    160304.85    2615990.3  0.033243562     73848.24 
  365000     6705          300    39528.461    14217.791     25310.67      259.968    0.3219505    259.64605    39788.429    39894.459            0    34333.848    160367.65    2615990.3  0.033243562    73849.351 
  366000     6705          300    39539.354    14251.776    25287.578      259.968   0.37125344    259.59675    39799.322    39870.973            0    34309.683    160217.47    2615990.3  0.033243562      73750.7 
  367000     6705          300    39559.158    14282.648     25276.51      259.968    0.3251682    259.64284    39819.126    39860.555            0    34299.655    160162.55    2615990.3  0.033243562    73704.936 
  368000     6705          300    39623.089    14328.275    25294.814      259.968   0.31721426    259.65079    39883.057    39888.545            0    34328.311    160202.34    2615990.3  0.033243562    73690.152 
  369000     6705          300    39705.586    14380.043    25325.543      259.968   0.32010622     259.6479    39965.554    39929.315            0    34370.018    160270.75    2615990.3  0.033243562    73681.526 
  370000     6705          300    39780.046    14434.761    25345.285      259.968    0.3255698    259.64243    40040.014    39962.423            0    34402.903    160315.85    2615990.3  0.033243562    73663.546 
  371000     6705          300    39834.102    14495.023     25339.08      259.968   0.31884735    259.64916     40094.07    39975.426            0    34415.623    160363.46    2615990.3  0.033243562    73659.593 
  372000     6705          300    39826.975    14543.548    25283.427      259.968   0.31058497    259.65742    40086.943    39932.557            0      34372.1    160232.55    2615990.3  0.033243562    73583.781 
  373000     6705          300    39812.122    14577.478    25234.644      259.968   0.28399777    259.68401     40072.09    39888.847            0    34327.398    160018.92    2615990.3  0.033243562    73462.039 
  374000     6705          300    39768.995    14588.241    25180.754      259.968   0.28135883    259.68664    40028.963    39826.332            0    34266.052    159709.61    2615990.3  0.033243562    73299.019 
  375000     6705          300    39784.623     14617.82    25166.803      259.968   0.26099313    259.70701    40044.591    39820.598            0    34260.998    159636.91    2615990.3  0.033243562    73244.918 
  376000     6705          300    39778.926     14642.12    25136.806      259.968   0.25723843    259.71077    40038.894    39795.858            0    34237.701    159497.78    2615990.3  0.033243562    73163.199 
  377000     6705          300    39786.224    14658.294     25127.93      259.968   0.25233312    259.71567    40046.192    39790.446            0     34233.08    159384.15    2615990.3  0.033243562    73089.137 
  378000     6705          300    39792.588    14670.218     25122.37      259.968   0.24880969    259.71919    40052.556    39784.191            0    34226.815    159229.04    2615990.3  0.033243562    72990.238 
  379000     6705          300    39819.063    14685.959    25133.104      259.968   0.25120105     259.7168    40079.031    39798.525            0    34241.545    159184.58    2615990.3  0.033243562    72946.793 
  380000     6705          300    39810.005    14685.773    25124.232      259.968   0.27524027    259.69276    40069.973    39787.245            0    34231.428    159058.61    2615990.3  0.033243562    72875.194 
  381000     6705          300    39856.957    14701.465    25155.492      259.968   0.25519109    259.71281    40116.925    39831.515            0    34275.043    159147.13    2615990.3  0.033243562     72900.65 
  382000     6705          300    39898.757    14719.106    25179.652      259.968   0.24998626    259.71802    40158.725    39868.754            0    34311.031    159220.81    2615990.3  0.033243562    72920.178 
  383000     6705          300    39902.084    14746.371    25155.712      259.968   0.24590317     259.7221    40162.052    39866.947            0    34308.034     159227.7    2615990.3  0.033243562    72922.358 
  384000     6705          300    39896.028    14775.572    25120.456      259.968   0.24715434    259.72085    40155.996    39857.408            0    34297.048     159204.3    2615990.3  0.033243562    72911.733 
  385000     6705          300    39939.416    14805.621    25133.795      259.968   0.24540198     259.7226    40199.384     39897.93            0    34338.243    159295.05    2615990.3  0.033243562    72940.742 
  386000     6705          300    39966.177    14835.351    25130.826      259.968   0.24225865    259.72574    40226.145    39922.569            0    34364.696    159372.78    2615990.3  0.033243562     72971.96 
  387000     6705          300    40002.213     14862.06    25140.153      259.968   0.23580828     259.7322    40262.181    39963.146            0    34405.976    159488.05    2615990.3  0.033243562    73020.488 
  388000     6705          300    40037.356    14860.207    25177.148      259.968   0.25663614    259.71137    40297.324    40006.404            0    34450.722    159545.77    2615990.3  0.033243562    73034.312 
  389000     6705          300    40111.345    14867.442    25243.903      259.968   0.23483577    259.73317    40371.313    40088.992            0    34534.434    159747.85    2615990.3  0.033243562    73112.763 
  390000     6705          300    40179.305    14867.701    25311.604      259.968    0.2290457    259.73896    40439.273    40170.212            0    34617.598    159897.27    2615990.3  0.033243562    73162.655 
  391000     6705          300    40249.838    14861.444    25388.394      259.968   0.22095463    259.74705    40509.806    40247.326            0    34699.114     160013.1    2615990.3  0.033243562    73190.395 
  392000     6705          300    40284.196    14848.217    25435.979      259.968   0.22013712    259.74787    40544.164    40290.334            0     34745.58     160019.2    2615990.3  0.033243562    73173.087 
  393000     6705          300    40307.842    14840.847    25466.995      259.968   0.21938209    259.74862     40567.81    40322.817            0    34781.388    160067.27    2615990.3  0.033243562    73188.045 
  394000     6705          300    40369.953    14840.926    25529.027      259.968   0.21314793    259.75486    40629.921    40389.497            0    34851.651    160246.33    2615990.3  0.033243562    73259.672 
  395000     6705          300    40454.747    14848.445    25606.302      259.968    0.2081899    259.75981    40714.715    40482.359            0    34947.913    160469.16    2615990.3  0.033243562    73344.212 
  396000     6705          300    40586.653     14861.73    25724.923      259.968   0.20965261    259.75835    40846.621    40612.092            0    35081.178    160776.37    2615990.3  0.033243562    73451.583 
  397000     6705          300    40827.126    14896.482    25930.644      259.968   0.21315451    259.75485    41087.094    40840.185            0    35312.432    161470.36    2615990.3  0.033243562     73729.34 
  398000     6705          300    41072.836    14926.977    26145.859      259.968   0.23617097    259.73183    41332.804    41072.754            0    35548.301    162176.83    2615990.3  0.033243562    74011.532 
  399000     6705          300    41324.497    14950.716    26373.781      259.968   0.23348078    259.73452    41584.465     41320.56            0    35799.692    162913.53    2615990.3  0.033243562    74308.596 
  400000     6705          300    41593.543    14979.753    26613.791      259.968   0.22903885    259.73896    41853.511    41586.508            0    36069.661    163721.61    2615990.3  0.033243562    74638.734 
  401000     6705          300    41888.065    15026.908    26861.157      259.968   0.23139081    259.73661    42148.033    41870.997            0    36358.472    164611.18    2615990.3  0.033243562    75003.172 
  402000     6705          300    42215.079    15086.933    27128.146      259.968   0.23879221    259.72921    42475.047    42182.015            0    36673.652     165579.1    2615990.3  0.033243562    75395.699 
  403000     6705          300    42532.061    15147.567    27384.494      259.968   0.24213592    259.72587    42792.029    42476.881            0    36973.283    166463.75    2615990.3  0.033243562    75743.369 
  404000     6705          300     42837.75    15197.825    27639.925      259.968   0.24096241    259.72704    43097.718    42763.841            0    37262.867    167300.11    2615990.3  0.033243562    76068.385 
  405000     6705          300    43138.298    15245.376    27892.922      259.968   0.24149084    259.72651    43398.266    43051.442            0    37553.665    168089.34    2615990.3  0.033243562    76367.681 
  406000     6705          300    43459.826    15285.496     28174.33      259.968   0.24242447    259.72558    43719.794    43348.871            0    37856.477    168934.53    2615990.3  0.033243562    76688.395 
  407000     6705          300    43839.152    15342.192    28496.959      259.968   0.25006483    259.71794     44099.12     43701.16            0    38214.277    170015.33    2615990.3  0.033243562    77118.018 
  408000     6705          300    44190.321    15400.445    28789.875      259.968   0.25020206     259.7178    44450.289    44027.907            0    38544.816    170999.56    2615990.3  0.033243562    77505.738 
  409000     6705          300     44557.79    15458.994    29098.796      259.968   0.24801984    259.71998    44817.758    44369.158            0    38890.322    172007.06    2615990.3  0.033243562    77897.728 
  410000     6705          300    44995.935    15535.636      29460.3      259.968   0.24643112    259.72157    45255.903    44780.552            0    39306.243    173297.34    2615990.3  0.033243562    78419.626 
  411000     6705          300    45404.375     15607.95    29796.425      259.968   0.25219739    259.71581    45664.343     45155.06            0    39684.778    174630.07    2615990.3  0.033243562    78985.713 
  412000     6705          300     45884.84    15703.289    30181.551      259.968   0.26160054     259.7064    46144.808    45604.331            0    40137.936    176205.92    2615990.3  0.033243562    79656.582 
  413000     6705          300    46366.632    15798.164    30568.468      259.968   0.27642059    259.69158      46626.6    46046.598            0    40584.772    177725.27    2615990.3  0.033243562    80292.042 
  414000     6705          300    46864.228     15893.36    30970.868      259.968   0.28299483    259.68501    47124.196    46505.969            0    41048.929    179204.75    2615990.3  0.033243562      80893.4 
  415000     6705          300    47395.311    15975.026    31420.285      259.968   0.28723513    259.68077    47655.279     47009.56            0    41557.616    180747.98    2615990.3  0.033243562    81513.299 
  416000     6705          300    47898.793      16060.3    31838.493      259.968   0.29861129    259.66939    48158.761    47487.176            0    42038.382    182261.18    2615990.3  0.033243562    82131.701 
  417000     6705          300    48391.137     16136.15    32254.986      259.968   0.29763723    259.67037    48651.105     47954.44            0    42507.623    183718.42    2615990.3  0.033243562    82722.662 
  418000     6705          300    48848.522    16212.285    32636.237      259.968   0.29206651    259.67594     49108.49    48394.795            0    42947.109    185088.98    2615990.3  0.033243562    83281.935 
  419000     6705          300    49412.389    16308.811    33103.578      259.968   0.30706592    259.66094    49672.357    48931.317            0    43483.478    186881.19    2615990.3  0.033243562    84034.243 
  420000     6705          300    49995.476    16423.265    33572.211      259.968   0.32847161    259.63953    50255.444    49476.094            0    44028.549    188704.19    2615990.3  0.033243562    84793.636 
  421000     6705          300    50526.688    16532.356    33994.332      259.968   0.35588003    259.61212    50786.656    49964.275            0    44517.783    190304.03    2615990.3  0.033243562    85448.118 
  422000     6705          300    51112.892    16663.621    34449.271      259.968   0.37399822    259.59401     51372.86    50505.003            0    45059.828    192083.34    2615990.3  0.033243562    86178.846 
  423000     6705          300    51607.906    16770.951    34836.955      259.968   0.39057296    259.57743    51867.874    50954.068            0    45512.634    193543.58    2615990.3  0.033243562    86770.003 
  424000     6705          300    52172.941    16879.154    35293.787      259.968   0.41029314    259.55771    52432.909    51475.158            0    46037.447    195174.32    2615990.3  0.033243562    87422.695 
  425000     6705          300    52901.738    17011.329    35890.408      259.968   0.43545157    259.53255    53161.706    52150.682            0    46715.285    197258.91    2615990.3  0.033243562    88253.058 
  426000     6705          300    53663.388    17154.101    36509.287      259.968   0.44774586    259.52026    53923.356    52846.752            0     47415.78    199478.61    2615990.3  0.033243562    89146.053 
  427000     6705          300    54302.145    17278.115     37024.03      259.968   0.44681604    259.52119    54562.113    53409.833            0    47986.433    201300.27    2615990.3  0.033243562    89870.526 
  428000     6705          300    54921.066    17391.371    37529.695      259.968    0.4413316    259.52667    55181.034    53971.596            0    48555.402    203074.66    2615990.3  0.033243562    90578.199 
  429000     6705          300    55494.352    17477.495    38016.857      259.968    0.4620246    259.50598     55754.32    54484.812            0    49076.863    204627.87    2615990.3  0.033243562    91178.356 
  430000     6705          300    56165.651    17600.723    38564.928      259.968   0.50692914    259.46107    56425.619    55087.503            0    49688.428    206539.47    2615990.3  0.033243562    91937.984 
  431000     6705          300    56945.944    17759.853    39186.091      259.968   0.54708259    259.42092    57205.912     55805.58            0    50415.983    208916.79    2615990.3  0.033243562    92916.092 
  432000     6705          300    57729.491    17921.243    39808.248      259.968   0.58321095    259.38479    57989.459    56517.571            0    51134.609    211266.51    2615990.3  0.033243562    93875.305 
  433000     6705          300    58558.714    18086.156    40472.559      259.968   0.63182305    259.33618    58818.682    57266.442            0    51890.121     213576.9    2615990.3  0.033243562    94782.453 
  434000     6705          300    59451.908    18248.637     41203.27      259.968   0.66356376    259.30444    59711.876    58069.498            0    52700.337    216028.85    2615990.3  0.033243562    95737.122 
  435000     6705          300    60400.303    18410.705    41989.599      259.968   0.69868112    259.26932    60660.271     58910.33            0    53548.286    218577.14    2615990.3  0.033243562    96716.984 
  436000     6705          300    61363.898    18570.823    42793.075      259.968   0.69188416    259.27612    61623.866    59774.631            0    54413.641    221203.37    2615990.3  0.033243562    97735.272 
  437000     6705          300    62318.413    18767.174    43551.239      259.968   0.73312843    259.23488    62578.381    60637.558            0    55278.212    224054.96    2615990.3  0.033243562    98897.147 
  438000     6705          300    63157.238    18965.149    44192.089      259.968   0.73777285    259.23023    63417.206    61384.958            0    56032.573    226455.99    2615990.3  0.033243562    99853.927 
  439000     6705          300    63911.871    19120.897    44790.974      259.968   0.75806516    259.20994    64171.839    62055.476            0    56709.479    228630.44    2615990.3  0.033243562     100723.5 
  440000     6705          300    64772.001    19298.025    45473.976      259.968   0.80733559    259.16067    65031.969    62817.869            0    57477.458    231055.95    2615990.3  0.033243562    101682.22 
  441000     6705          300    65668.175    19478.724    46189.451      259.968   0.85970211     259.1083    65928.143    63615.605            0    58281.654    233721.22    2615990.3  0.033243562    102765.72 
  442000     6705          300    66720.565    19688.652    47031.913      259.968    1.0160918    258.95191    66980.533    64563.021            0    59234.499    236731.05    2615990.3  0.033243562    103964.56 
  443000     6705          300    67791.669    19914.892    47876.777      259.968    1.1168192    258.85118    68051.637    65521.729            0    60197.581       239757    2615990.3  0.033243562    105161.81 
  444000     6705          300    68910.715     20128.35    48782.365      259.968     1.176971    258.79103    69170.683    66512.501            0    61195.879     242910.3    2615990.3  0.033243562     106407.7 
  445000     6705          300    70040.735      20351.3    49689.434      259.968    1.2543714    258.71363    70300.703    67516.903            0    62206.473    246041.78    2615990.3  0.033243562    107633.51 
  446000     6705          300    71167.593    20607.706    50559.886      259.968    1.3838179    258.58419    71427.561    68508.623            0    63208.865    249282.83    2615990.3  0.033243562    108928.36 
  447000     6705          300    72158.072    20863.049    51295.023      259.968    1.5231348    258.44487     72418.04    69364.282            0    64074.907    252060.15    2615990.3  0.033243562    110022.71 
  448000     6705          300    73059.059     21093.19    51965.869      259.968    1.6729842    258.29502    73319.027    70128.648            0     64847.11    254460.19    2615990.3  0.033243562    110940.82 
  449000     6705          300     74188.42    21342.292    52846.128      259.968    1.9269027     258.0411    74448.388    71119.454            0    65848.429    257411.55    2615990.3  0.033243562    112056.71 
  450000     6705          300     75060.46    21622.108    53438.352      259.968    2.0633951    257.90461    75320.428    71827.691            0     66566.15    259831.47    2615990.3  0.033243562    113004.72 
  451000     6705          300    76072.759    21921.246    54151.513      259.968    2.5249704    257.44303    76332.727    72657.034            0    67402.366    262417.76    2615990.3  0.033243562    113968.72 
  452000     6705          300    76850.442    22223.446    54626.996      259.968    2.6313227    257.33668     77110.41    73230.628            0    67977.692    264370.66    2615990.3  0.033243562    114688.49 
  453000     6705          300    77447.226    22518.458    54928.768      259.968    2.7374254    257.23058    77707.194    73640.708            0    68388.942    265880.44    2615990.3  0.033243562    115247.66 
  454000     6705          300     77999.73    22962.526    55037.203      259.968    3.2006474    256.76736    78259.698    73941.425            0    68693.218    267403.17    2615990.3  0.033243562    115841.87 
  455000     6705          300     77830.39    22949.705    54880.685      259.968    3.9526551    256.01535    78090.358    73701.437            0    68457.606    266011.44    2615990.3  0.033243562    115093.22 
  456000     6705          300    78311.513    23240.481    55071.032      259.968    3.8430942    256.12491    78571.481    73998.303            0      68753.3    267012.68    2615990.3  0.033243562    115411.76 
  457000     6705          300      78787.7    23439.219    55348.481      259.968    3.7122698    256.25573    79047.668    74322.002            0    69081.177    267969.72    2615990.3  0.033243562    115706.26 
  458000     6705          300    79206.695    23715.913    55490.782      259.968    3.7376784    256.23033    79466.663    74606.689            0    69363.791    269109.21    2615990.3  0.033243562    116147.54 
  459000     6705          300     79280.23    23881.463    55398.766      259.968    5.0634877    254.90452    79540.198     74577.02            0    69333.719    269127.67    2615990.3  0.033243562    116113.81 
  460000     6705          300    79043.207    23805.705    55237.502      259.968    3.9986373    255.96937    79303.175    74360.091            0    69116.384     267953.7    2615990.3  0.033243562    115539.97 
  461000     6705          300    79259.804    24019.138    55240.666      259.968    4.3835184    255.58449    79519.772    74470.084            0    69220.968    268290.04    2615990.3  0.033243562     115613.3 
  462000     6705          300     79206.43    24228.068    54978.362      259.968    4.1526357    255.81537    79466.398     74288.71            0    69035.262    267747.86    2615990.3  0.033243562    115313.93 
  463000     6705          300    78859.458    24186.324    54673.134      259.968    4.1822944    255.78571    79119.426    73910.715            0    68656.999    265897.97    2615990.3  0.033243562    114393.46 
  464000     6705          300    78778.823    24317.369    54461.454      259.968     4.285192    255.68281    79038.791     73744.78            0    68494.382    265201.44    2615990.3  0.033243562    114016.26 
  465000     6705          300     78536.35    24448.039    54088.311      259.968    4.1338373    255.83417    78796.318    73412.315            0    68169.082    264099.83    2615990.3  0.033243562    113490.07 
  466000     6705          300    78270.817    24590.647    53680.169      259.968    3.9991555    255.96885    78530.785    73079.325            0    67839.248    263026.09    2615990.3  0.033243562    112995.08 
  467000     6705          300    77524.621    24457.558    53067.063      259.968    3.6971497    256.27085    77784.589    72374.781            0    67134.273    260248.43    2615990.3  0.033243562     111750.9 
  468000     6705          300    77252.059    24470.191    52781.868      259.968    4.2298101    255.73819    77512.027     72089.94            0    66850.215    258961.33    2615990.3  0.033243562    111129.54 
  469000     6705          300     77018.15    24526.757    52491.393      259.968    4.4178751    255.55013    77278.118     71822.89            0    66578.537    257889.63    2615990.3  0.033243562    110616.43 
  470000     6705          300     76672.96    24539.022    52133.938      259.968    4.6641634    255.30384    76932.928    71430.217            0     66180.27    256241.57    2615990.3  0.033243562    109818.48 
  471000     6705          300    76487.071    24605.011     51882.06      259.968    4.7045351    255.26347    76747.039    71183.855            0     65928.96    255124.11    2615990.3  0.033243562    109247.94 
  472000     6705          300    76341.695     24744.22    51597.475      259.968    5.0328566    254.93515    76601.663    70956.973            0    65695.368    254202.06    2615990.3  0.033243562    108772.26 
  473000     6705          300    76158.501     24876.04     51282.46      259.968    5.3776521    254.59035    76418.469    70655.311            0    65390.067    252998.05    2615990.3  0.033243562    108147.05 
  474000     6705          300    76002.276    25051.271    50951.005      259.968    5.8034368    254.16457    76262.244    70373.111            0    65105.501    251932.42    2615990.3  0.033243562    107590.09 
  475000     6705          300    75674.032    25168.609    50505.423      259.968    5.1174703    254.85053        75934    69937.635            0    64665.457    250209.47    2615990.3  0.033243562    106735.89 
  476000     6705          300    75377.014     25252.08    50124.934      259.968    4.7726899    255.19531    75636.982    69580.682            0    64302.044    248667.33    2615990.3  0.033243562    105973.31 
  477000     6705          300    74994.712    25312.754    49681.958      259.968    4.9044863    255.06352     75254.68    69169.217            0     63883.17    247091.88    2615990.3  0.033243562    105242.56 
  478000     6705          300    74655.809    25353.452    49302.357      259.968    4.8412337    255.12677    74915.777    68812.849            0    63524.692    245550.33    2615990.3  0.033243562    104505.99 
  479000     6705          300    74403.248     25411.36    48991.887      259.968    4.5492179    255.41879    74663.216    68537.057            0    63246.198    244421.06    2615990.3  0.033243562    103969.05 
  480000     6705          300    74153.914    25414.051    48739.863      259.968    4.5894615    255.37854    74413.882    68304.922            0    63011.576    243257.28    2615990.3  0.033243562    103408.99 
  481000     6705          300    73940.452     25454.05    48486.402      259.968    4.3829484    255.58506     74200.42    68091.151            0    62797.679    242307.65    2615990.3  0.033243562    102958.12 
  482000     6705          300    73663.232    25479.069    48184.163      259.968    4.0094746    255.95853      73923.2    67777.064            0    62484.884     240828.6    2615990.3  0.033243562    102222.05 
  483000     6705          300    73362.299    25479.545    47882.755      259.968    3.5378374    256.43017    73622.267    67466.553            0    62174.551    239379.79    2615990.3  0.033243562    101519.03 
  484000     6705          300    73054.802    25477.364    47577.439      259.968    3.1794121    256.78859     73314.77    67157.436            0    61862.494    238103.96    2615990.3  0.033243562    100925.97 
  485000     6705          300    72730.338     25475.88    47254.458      259.968    3.2281114    256.73989    72990.306    66847.123            0    61548.622    236751.47    2615990.3  0.033243562    100296.36 
  486000     6705          300    72285.686    25436.691    46848.995      259.968    2.9496591    257.01834    72545.654    66419.519            0    61116.968    234921.48    2615990.3  0.033243562    99447.895 
  487000     6705          300    71982.486    25418.493    46563.993      259.968    2.9467796    257.02122    72242.454    66142.771            0    60838.411    233635.36    2615990.3  0.033243562    98845.902 
  488000     6705          300    71720.266    25432.993    46287.272      259.968    2.7667642    257.20124    71980.234    65886.211            0    60578.666    232565.34    2615990.3  0.033243562    98351.157 
  489000     6705          300    71410.498     25459.74    45950.757      259.968    2.6141779    257.35383    71670.466    65555.284            0    60245.493     231228.3    2615990.3  0.033243562        97722 
  490000     6705          300    71130.208    25492.143    45638.065      259.968    2.5473736    257.42063    71390.176    65245.389            0    59929.989    229948.06    2615990.3  0.033243562    97109.578 
  491000     6705          300    70862.285    25507.154    45355.131      259.968    2.3642836    257.60372    71122.253    64950.618            0    59637.824    228605.85    2615990.3  0.033243562    96451.626 
  492000     6705          300    70552.314    25533.859    45018.455      259.968     2.245282    257.72272    70812.282    64609.621            0    59298.756    227167.06    2615990.3  0.033243562    95760.275 
  493000     6705          300     70217.82     25578.39    44639.431      259.968    2.2949391    257.67306    70477.788    64229.204            0    58917.322     225789.3    2615990.3  0.033243562    95121.322 
  494000     6705          300    69914.257    25600.271    44313.986      259.968    2.3017967    257.66621    70174.225    63880.119            0    58566.595    224224.69    2615990.3  0.033243562    94348.984 
  495000     6705          300    69726.285    25649.128    44077.156      259.968    2.2738045     257.6942    69986.253    63632.432            0    58317.354     223073.7    2615990.3  0.033243562    93759.182 
  496000     6705          300    69565.459    25698.836    43866.623      259.968    2.2095723    257.75843    69825.427    63413.127            0    58097.101    222038.49    2615990.3  0.033243562     93223.66 
  497000     6705          300    69408.692    25765.259    43643.433      259.968    2.1597241    257.80828     69668.66     63204.72            0    57887.054    221051.81    2615990.3  0.033243562    92715.377 
  498000     6705          300    69212.596    25828.221    43384.375      259.968    2.0489617    257.91904    69472.564    62959.242            0     57640.04    220060.19    2615990.3  0.033243562    92228.153 
  499000     6705          300    68920.029    25856.142    43063.886      259.968    1.8560858    258.11192    69179.997    62630.259            0    57309.858    218704.83    2615990.3  0.033243562    91577.239 
  500000     6705          300    68650.163    25869.195    42780.968      259.968    1.7598677    258.20814    68910.131    62339.112            0    57018.017    217574.07    2615990.3  0.033243562    91049.983 
Loop time of 88995.9 on 1 procs for 500000 steps with 6705 atoms

Performance: 0.005 ns/day, 4944.215 hours/ns, 5.618 timesteps/s
99.7% CPU use with 1 MPI tasks x no OpenMP threads

MPI task timing breakdown:
Section |  min time  |  avg time  |  max time  |%varavg| %total
---------------------------------------------------------------
Pair    | 79707      | 79707      | 79707      |   0.0 | 89.56
Bond    | 186.34     | 186.34     | 186.34     |   0.0 |  0.21
Kspace  | 8584.4     | 8584.4     | 8584.4     |   0.0 |  9.65
Neigh   | 93.948     | 93.948     | 93.948     |   0.0 |  0.11
Comm    | 0.89481    | 0.89481    | 0.89481    |   0.0 |  0.00
Output  | 234.81     | 234.81     | 234.81     |   0.0 |  0.26
Modify  | 178.74     | 178.74     | 178.74     |   0.0 |  0.20
Other   |            | 9.708      |            |       |  0.01

Nlocal:    6705 ave 6705 max 6705 min
Histogram: 1 0 0 0 0 0 0 0 0 0
Nghost:    85 ave 85 max 85 min
Histogram: 1 0 0 0 0 0 0 0 0 0
Neighs:    480016 ave 480016 max 480016 min
Histogram: 1 0 0 0 0 0 0 0 0 0
FullNghs:  1.35181e+06 ave 1.35181e+06 max 1.35181e+06 min
Histogram: 1 0 0 0 0 0 0 0 0 0

Total # of neighbors = 1351810
Ave neighs/atom = 201.612
Ave special neighs/atom = 6.5393
Neighbor list builds = 1888
Dangerous builds = 1

print "Selesai"
Selesai
# End #
Total wall time: 24:43:42
